 &control
    calculation='bands'
    pseudo_dir = './',
    outdir='./',
    prefix='FeCl2'
	 verbosity='high'
 /
&system
    ibrav = 5, nat= 3, ntyp= 2,
	 A=6.42277, cosAB=0.849279,
    ecutwfc =80.0, nspin = 2, starting_magnetization=0.5, nbnd= 28, ecutrho=1000.0
    occupations='smearing', smearing='cold', degauss=0.01
 /
 &electrons
    conv_thr = 1.0e-8
 /
ATOMIC_SPECIES
 Fe 55.8470 Fe.pbe-spn-kjpaw_psl.1.0.0.UPF
 Cl 35.4527 Cl.pbe-n-kjpaw_psl.1.0.0.UPF
ATOMIC_POSITIONS crystal
 Fe   0.0000000000000000  0.0000000000000000  0.0000000000000000
 Cl   0.7421428700000000  0.7421428700000001  0.7421428700000001
 Cl   0.2578571299999999  0.2578571299999999  0.2578571299999999
K_POINTS crystal_b
  9
   0.0000000000   0.0000000000   0.0000000000  15 ! G          
   0.5000000000   0.5000000000   0.5000000000  15 ! T             
   0.8179353747   0.1820646253   0.5000000000  15 ! H2           
   0.5000000000  -0.1820646253   0.1820646253  15 ! H0           
   0.5000000000   0.0000000000   0.0000000000  15 ! L             
   0.0000000000   0.0000000000   0.0000000000  15 ! G         
   0.3410323127  -0.3410323127   0.0000000000  15 ! S0           
   0.6589676873   0.0000000000   0.3410323127  15 ! S2           
   0.5000000000   0.0000000000   0.5000000000  15 ! F               
