num_wann        = 5
num_iter        = 150
num_bands       = 5
exclude_bands: 1-12,18-24


dis_win_min = -2
dis_win_max =  1

#dis_froz_min = -5
#dis_froz_max = 5

bands_plot         = true
guiding_centres = true
write_hr           = true
wannier_plot       = false
fermi_surface_plot = true
site_symmetry      = true
#symmetrize_eps=  1d-1
wannier_plot_supercell = 3

Fermi_energy = 6.926
kmesh_tol=0.0001


begin atoms_frac
         Fe  0.0000000000        0.0000000000        0.0000000000
         Cl  0.7299903335        0.7299903335        0.7299903335
         Cl  0.2700096665        0.2700096665        0.2700096665
end atoms_frac

begin projections
Fe: d
end projections

begin unit_cell_cart
Ang
      1.70112905629    -0.982147318577   6.39763369555
      0.00000000000     1.964294637150   6.39763369555
      -1.70112905629   -0.982147318577   6.39763369555
end_unit_cell_cart

begin kpoint_path # along the following path
G    0.0000000000   0.0000000000   0.0000000000   T    0.5000000000   0.5000000000   0.5000000000
T    0.5000000000   0.5000000000   0.5000000000   H2   0.8179353747   0.1820646253   0.5000000000
H2   0.8179353747   0.1820646253   0.5000000000   H0   0.5000000000  -0.1820646253   0.1820646253
H0   0.5000000000  -0.1820646253   0.1820646253   L    0.5000000000   0.0000000000   0.0000000000
L    0.5000000000   0.0000000000   0.0000000000   G    0.0000000000   0.0000000000   0.0000000000
G    0.0000000000   0.0000000000   0.0000000000   S0   0.3410323127  -0.3410323127   0.0000000000
S0   0.3410323127  -0.3410323127   0.0000000000   S2   0.6589676873   0.0000000000   0.3410323127
S2   0.6589676873   0.0000000000   0.3410323127   F    0.5000000000   0.0000000000   0.5000000000
end kpoint_path

mp_grid =    16    16     16

begin kpoints
  0.00000000  0.00000000  0.00000000 
  0.00000000  0.00000000  0.06250000 
  0.00000000  0.00000000  0.12500000 
  0.00000000  0.00000000  0.18750000 
  0.00000000  0.00000000  0.25000000 
  0.00000000  0.00000000  0.31250000 
  0.00000000  0.00000000  0.37500000 
  0.00000000  0.00000000  0.43750000 
  0.00000000  0.00000000  0.50000000 
  0.00000000  0.00000000  0.56250000 
  0.00000000  0.00000000  0.62500000 
  0.00000000  0.00000000  0.68750000 
  0.00000000  0.00000000  0.75000000 
  0.00000000  0.00000000  0.81250000 
  0.00000000  0.00000000  0.87500000 
  0.00000000  0.00000000  0.93750000 
  0.00000000  0.06250000  0.00000000 
  0.00000000  0.06250000  0.06250000 
  0.00000000  0.06250000  0.12500000 
  0.00000000  0.06250000  0.18750000 
  0.00000000  0.06250000  0.25000000 
  0.00000000  0.06250000  0.31250000 
  0.00000000  0.06250000  0.37500000 
  0.00000000  0.06250000  0.43750000 
  0.00000000  0.06250000  0.50000000 
  0.00000000  0.06250000  0.56250000 
  0.00000000  0.06250000  0.62500000 
  0.00000000  0.06250000  0.68750000 
  0.00000000  0.06250000  0.75000000 
  0.00000000  0.06250000  0.81250000 
  0.00000000  0.06250000  0.87500000 
  0.00000000  0.06250000  0.93750000 
  0.00000000  0.12500000  0.00000000 
  0.00000000  0.12500000  0.06250000 
  0.00000000  0.12500000  0.12500000 
  0.00000000  0.12500000  0.18750000 
  0.00000000  0.12500000  0.25000000 
  0.00000000  0.12500000  0.31250000 
  0.00000000  0.12500000  0.37500000 
  0.00000000  0.12500000  0.43750000 
  0.00000000  0.12500000  0.50000000 
  0.00000000  0.12500000  0.56250000 
  0.00000000  0.12500000  0.62500000 
  0.00000000  0.12500000  0.68750000 
  0.00000000  0.12500000  0.75000000 
  0.00000000  0.12500000  0.81250000 
  0.00000000  0.12500000  0.87500000 
  0.00000000  0.12500000  0.93750000 
  0.00000000  0.18750000  0.00000000 
  0.00000000  0.18750000  0.06250000 
  0.00000000  0.18750000  0.12500000 
  0.00000000  0.18750000  0.18750000 
  0.00000000  0.18750000  0.25000000 
  0.00000000  0.18750000  0.31250000 
  0.00000000  0.18750000  0.37500000 
  0.00000000  0.18750000  0.43750000 
  0.00000000  0.18750000  0.50000000 
  0.00000000  0.18750000  0.56250000 
  0.00000000  0.18750000  0.62500000 
  0.00000000  0.18750000  0.68750000 
  0.00000000  0.18750000  0.75000000 
  0.00000000  0.18750000  0.81250000 
  0.00000000  0.18750000  0.87500000 
  0.00000000  0.18750000  0.93750000 
  0.00000000  0.25000000  0.00000000 
  0.00000000  0.25000000  0.06250000 
  0.00000000  0.25000000  0.12500000 
  0.00000000  0.25000000  0.18750000 
  0.00000000  0.25000000  0.25000000 
  0.00000000  0.25000000  0.31250000 
  0.00000000  0.25000000  0.37500000 
  0.00000000  0.25000000  0.43750000 
  0.00000000  0.25000000  0.50000000 
  0.00000000  0.25000000  0.56250000 
  0.00000000  0.25000000  0.62500000 
  0.00000000  0.25000000  0.68750000 
  0.00000000  0.25000000  0.75000000 
  0.00000000  0.25000000  0.81250000 
  0.00000000  0.25000000  0.87500000 
  0.00000000  0.25000000  0.93750000 
  0.00000000  0.31250000  0.00000000 
  0.00000000  0.31250000  0.06250000 
  0.00000000  0.31250000  0.12500000 
  0.00000000  0.31250000  0.18750000 
  0.00000000  0.31250000  0.25000000 
  0.00000000  0.31250000  0.31250000 
  0.00000000  0.31250000  0.37500000 
  0.00000000  0.31250000  0.43750000 
  0.00000000  0.31250000  0.50000000 
  0.00000000  0.31250000  0.56250000 
  0.00000000  0.31250000  0.62500000 
  0.00000000  0.31250000  0.68750000 
  0.00000000  0.31250000  0.75000000 
  0.00000000  0.31250000  0.81250000 
  0.00000000  0.31250000  0.87500000 
  0.00000000  0.31250000  0.93750000 
  0.00000000  0.37500000  0.00000000 
  0.00000000  0.37500000  0.06250000 
  0.00000000  0.37500000  0.12500000 
  0.00000000  0.37500000  0.18750000 
  0.00000000  0.37500000  0.25000000 
  0.00000000  0.37500000  0.31250000 
  0.00000000  0.37500000  0.37500000 
  0.00000000  0.37500000  0.43750000 
  0.00000000  0.37500000  0.50000000 
  0.00000000  0.37500000  0.56250000 
  0.00000000  0.37500000  0.62500000 
  0.00000000  0.37500000  0.68750000 
  0.00000000  0.37500000  0.75000000 
  0.00000000  0.37500000  0.81250000 
  0.00000000  0.37500000  0.87500000 
  0.00000000  0.37500000  0.93750000 
  0.00000000  0.43750000  0.00000000 
  0.00000000  0.43750000  0.06250000 
  0.00000000  0.43750000  0.12500000 
  0.00000000  0.43750000  0.18750000 
  0.00000000  0.43750000  0.25000000 
  0.00000000  0.43750000  0.31250000 
  0.00000000  0.43750000  0.37500000 
  0.00000000  0.43750000  0.43750000 
  0.00000000  0.43750000  0.50000000 
  0.00000000  0.43750000  0.56250000 
  0.00000000  0.43750000  0.62500000 
  0.00000000  0.43750000  0.68750000 
  0.00000000  0.43750000  0.75000000 
  0.00000000  0.43750000  0.81250000 
  0.00000000  0.43750000  0.87500000 
  0.00000000  0.43750000  0.93750000 
  0.00000000  0.50000000  0.00000000 
  0.00000000  0.50000000  0.06250000 
  0.00000000  0.50000000  0.12500000 
  0.00000000  0.50000000  0.18750000 
  0.00000000  0.50000000  0.25000000 
  0.00000000  0.50000000  0.31250000 
  0.00000000  0.50000000  0.37500000 
  0.00000000  0.50000000  0.43750000 
  0.00000000  0.50000000  0.50000000 
  0.00000000  0.50000000  0.56250000 
  0.00000000  0.50000000  0.62500000 
  0.00000000  0.50000000  0.68750000 
  0.00000000  0.50000000  0.75000000 
  0.00000000  0.50000000  0.81250000 
  0.00000000  0.50000000  0.87500000 
  0.00000000  0.50000000  0.93750000 
  0.00000000  0.56250000  0.00000000 
  0.00000000  0.56250000  0.06250000 
  0.00000000  0.56250000  0.12500000 
  0.00000000  0.56250000  0.18750000 
  0.00000000  0.56250000  0.25000000 
  0.00000000  0.56250000  0.31250000 
  0.00000000  0.56250000  0.37500000 
  0.00000000  0.56250000  0.43750000 
  0.00000000  0.56250000  0.50000000 
  0.00000000  0.56250000  0.56250000 
  0.00000000  0.56250000  0.62500000 
  0.00000000  0.56250000  0.68750000 
  0.00000000  0.56250000  0.75000000 
  0.00000000  0.56250000  0.81250000 
  0.00000000  0.56250000  0.87500000 
  0.00000000  0.56250000  0.93750000 
  0.00000000  0.62500000  0.00000000 
  0.00000000  0.62500000  0.06250000 
  0.00000000  0.62500000  0.12500000 
  0.00000000  0.62500000  0.18750000 
  0.00000000  0.62500000  0.25000000 
  0.00000000  0.62500000  0.31250000 
  0.00000000  0.62500000  0.37500000 
  0.00000000  0.62500000  0.43750000 
  0.00000000  0.62500000  0.50000000 
  0.00000000  0.62500000  0.56250000 
  0.00000000  0.62500000  0.62500000 
  0.00000000  0.62500000  0.68750000 
  0.00000000  0.62500000  0.75000000 
  0.00000000  0.62500000  0.81250000 
  0.00000000  0.62500000  0.87500000 
  0.00000000  0.62500000  0.93750000 
  0.00000000  0.68750000  0.00000000 
  0.00000000  0.68750000  0.06250000 
  0.00000000  0.68750000  0.12500000 
  0.00000000  0.68750000  0.18750000 
  0.00000000  0.68750000  0.25000000 
  0.00000000  0.68750000  0.31250000 
  0.00000000  0.68750000  0.37500000 
  0.00000000  0.68750000  0.43750000 
  0.00000000  0.68750000  0.50000000 
  0.00000000  0.68750000  0.56250000 
  0.00000000  0.68750000  0.62500000 
  0.00000000  0.68750000  0.68750000 
  0.00000000  0.68750000  0.75000000 
  0.00000000  0.68750000  0.81250000 
  0.00000000  0.68750000  0.87500000 
  0.00000000  0.68750000  0.93750000 
  0.00000000  0.75000000  0.00000000 
  0.00000000  0.75000000  0.06250000 
  0.00000000  0.75000000  0.12500000 
  0.00000000  0.75000000  0.18750000 
  0.00000000  0.75000000  0.25000000 
  0.00000000  0.75000000  0.31250000 
  0.00000000  0.75000000  0.37500000 
  0.00000000  0.75000000  0.43750000 
  0.00000000  0.75000000  0.50000000 
  0.00000000  0.75000000  0.56250000 
  0.00000000  0.75000000  0.62500000 
  0.00000000  0.75000000  0.68750000 
  0.00000000  0.75000000  0.75000000 
  0.00000000  0.75000000  0.81250000 
  0.00000000  0.75000000  0.87500000 
  0.00000000  0.75000000  0.93750000 
  0.00000000  0.81250000  0.00000000 
  0.00000000  0.81250000  0.06250000 
  0.00000000  0.81250000  0.12500000 
  0.00000000  0.81250000  0.18750000 
  0.00000000  0.81250000  0.25000000 
  0.00000000  0.81250000  0.31250000 
  0.00000000  0.81250000  0.37500000 
  0.00000000  0.81250000  0.43750000 
  0.00000000  0.81250000  0.50000000 
  0.00000000  0.81250000  0.56250000 
  0.00000000  0.81250000  0.62500000 
  0.00000000  0.81250000  0.68750000 
  0.00000000  0.81250000  0.75000000 
  0.00000000  0.81250000  0.81250000 
  0.00000000  0.81250000  0.87500000 
  0.00000000  0.81250000  0.93750000 
  0.00000000  0.87500000  0.00000000 
  0.00000000  0.87500000  0.06250000 
  0.00000000  0.87500000  0.12500000 
  0.00000000  0.87500000  0.18750000 
  0.00000000  0.87500000  0.25000000 
  0.00000000  0.87500000  0.31250000 
  0.00000000  0.87500000  0.37500000 
  0.00000000  0.87500000  0.43750000 
  0.00000000  0.87500000  0.50000000 
  0.00000000  0.87500000  0.56250000 
  0.00000000  0.87500000  0.62500000 
  0.00000000  0.87500000  0.68750000 
  0.00000000  0.87500000  0.75000000 
  0.00000000  0.87500000  0.81250000 
  0.00000000  0.87500000  0.87500000 
  0.00000000  0.87500000  0.93750000 
  0.00000000  0.93750000  0.00000000 
  0.00000000  0.93750000  0.06250000 
  0.00000000  0.93750000  0.12500000 
  0.00000000  0.93750000  0.18750000 
  0.00000000  0.93750000  0.25000000 
  0.00000000  0.93750000  0.31250000 
  0.00000000  0.93750000  0.37500000 
  0.00000000  0.93750000  0.43750000 
  0.00000000  0.93750000  0.50000000 
  0.00000000  0.93750000  0.56250000 
  0.00000000  0.93750000  0.62500000 
  0.00000000  0.93750000  0.68750000 
  0.00000000  0.93750000  0.75000000 
  0.00000000  0.93750000  0.81250000 
  0.00000000  0.93750000  0.87500000 
  0.00000000  0.93750000  0.93750000 
  0.06250000  0.00000000  0.00000000 
  0.06250000  0.00000000  0.06250000 
  0.06250000  0.00000000  0.12500000 
  0.06250000  0.00000000  0.18750000 
  0.06250000  0.00000000  0.25000000 
  0.06250000  0.00000000  0.31250000 
  0.06250000  0.00000000  0.37500000 
  0.06250000  0.00000000  0.43750000 
  0.06250000  0.00000000  0.50000000 
  0.06250000  0.00000000  0.56250000 
  0.06250000  0.00000000  0.62500000 
  0.06250000  0.00000000  0.68750000 
  0.06250000  0.00000000  0.75000000 
  0.06250000  0.00000000  0.81250000 
  0.06250000  0.00000000  0.87500000 
  0.06250000  0.00000000  0.93750000 
  0.06250000  0.06250000  0.00000000 
  0.06250000  0.06250000  0.06250000 
  0.06250000  0.06250000  0.12500000 
  0.06250000  0.06250000  0.18750000 
  0.06250000  0.06250000  0.25000000 
  0.06250000  0.06250000  0.31250000 
  0.06250000  0.06250000  0.37500000 
  0.06250000  0.06250000  0.43750000 
  0.06250000  0.06250000  0.50000000 
  0.06250000  0.06250000  0.56250000 
  0.06250000  0.06250000  0.62500000 
  0.06250000  0.06250000  0.68750000 
  0.06250000  0.06250000  0.75000000 
  0.06250000  0.06250000  0.81250000 
  0.06250000  0.06250000  0.87500000 
  0.06250000  0.06250000  0.93750000 
  0.06250000  0.12500000  0.00000000 
  0.06250000  0.12500000  0.06250000 
  0.06250000  0.12500000  0.12500000 
  0.06250000  0.12500000  0.18750000 
  0.06250000  0.12500000  0.25000000 
  0.06250000  0.12500000  0.31250000 
  0.06250000  0.12500000  0.37500000 
  0.06250000  0.12500000  0.43750000 
  0.06250000  0.12500000  0.50000000 
  0.06250000  0.12500000  0.56250000 
  0.06250000  0.12500000  0.62500000 
  0.06250000  0.12500000  0.68750000 
  0.06250000  0.12500000  0.75000000 
  0.06250000  0.12500000  0.81250000 
  0.06250000  0.12500000  0.87500000 
  0.06250000  0.12500000  0.93750000 
  0.06250000  0.18750000  0.00000000 
  0.06250000  0.18750000  0.06250000 
  0.06250000  0.18750000  0.12500000 
  0.06250000  0.18750000  0.18750000 
  0.06250000  0.18750000  0.25000000 
  0.06250000  0.18750000  0.31250000 
  0.06250000  0.18750000  0.37500000 
  0.06250000  0.18750000  0.43750000 
  0.06250000  0.18750000  0.50000000 
  0.06250000  0.18750000  0.56250000 
  0.06250000  0.18750000  0.62500000 
  0.06250000  0.18750000  0.68750000 
  0.06250000  0.18750000  0.75000000 
  0.06250000  0.18750000  0.81250000 
  0.06250000  0.18750000  0.87500000 
  0.06250000  0.18750000  0.93750000 
  0.06250000  0.25000000  0.00000000 
  0.06250000  0.25000000  0.06250000 
  0.06250000  0.25000000  0.12500000 
  0.06250000  0.25000000  0.18750000 
  0.06250000  0.25000000  0.25000000 
  0.06250000  0.25000000  0.31250000 
  0.06250000  0.25000000  0.37500000 
  0.06250000  0.25000000  0.43750000 
  0.06250000  0.25000000  0.50000000 
  0.06250000  0.25000000  0.56250000 
  0.06250000  0.25000000  0.62500000 
  0.06250000  0.25000000  0.68750000 
  0.06250000  0.25000000  0.75000000 
  0.06250000  0.25000000  0.81250000 
  0.06250000  0.25000000  0.87500000 
  0.06250000  0.25000000  0.93750000 
  0.06250000  0.31250000  0.00000000 
  0.06250000  0.31250000  0.06250000 
  0.06250000  0.31250000  0.12500000 
  0.06250000  0.31250000  0.18750000 
  0.06250000  0.31250000  0.25000000 
  0.06250000  0.31250000  0.31250000 
  0.06250000  0.31250000  0.37500000 
  0.06250000  0.31250000  0.43750000 
  0.06250000  0.31250000  0.50000000 
  0.06250000  0.31250000  0.56250000 
  0.06250000  0.31250000  0.62500000 
  0.06250000  0.31250000  0.68750000 
  0.06250000  0.31250000  0.75000000 
  0.06250000  0.31250000  0.81250000 
  0.06250000  0.31250000  0.87500000 
  0.06250000  0.31250000  0.93750000 
  0.06250000  0.37500000  0.00000000 
  0.06250000  0.37500000  0.06250000 
  0.06250000  0.37500000  0.12500000 
  0.06250000  0.37500000  0.18750000 
  0.06250000  0.37500000  0.25000000 
  0.06250000  0.37500000  0.31250000 
  0.06250000  0.37500000  0.37500000 
  0.06250000  0.37500000  0.43750000 
  0.06250000  0.37500000  0.50000000 
  0.06250000  0.37500000  0.56250000 
  0.06250000  0.37500000  0.62500000 
  0.06250000  0.37500000  0.68750000 
  0.06250000  0.37500000  0.75000000 
  0.06250000  0.37500000  0.81250000 
  0.06250000  0.37500000  0.87500000 
  0.06250000  0.37500000  0.93750000 
  0.06250000  0.43750000  0.00000000 
  0.06250000  0.43750000  0.06250000 
  0.06250000  0.43750000  0.12500000 
  0.06250000  0.43750000  0.18750000 
  0.06250000  0.43750000  0.25000000 
  0.06250000  0.43750000  0.31250000 
  0.06250000  0.43750000  0.37500000 
  0.06250000  0.43750000  0.43750000 
  0.06250000  0.43750000  0.50000000 
  0.06250000  0.43750000  0.56250000 
  0.06250000  0.43750000  0.62500000 
  0.06250000  0.43750000  0.68750000 
  0.06250000  0.43750000  0.75000000 
  0.06250000  0.43750000  0.81250000 
  0.06250000  0.43750000  0.87500000 
  0.06250000  0.43750000  0.93750000 
  0.06250000  0.50000000  0.00000000 
  0.06250000  0.50000000  0.06250000 
  0.06250000  0.50000000  0.12500000 
  0.06250000  0.50000000  0.18750000 
  0.06250000  0.50000000  0.25000000 
  0.06250000  0.50000000  0.31250000 
  0.06250000  0.50000000  0.37500000 
  0.06250000  0.50000000  0.43750000 
  0.06250000  0.50000000  0.50000000 
  0.06250000  0.50000000  0.56250000 
  0.06250000  0.50000000  0.62500000 
  0.06250000  0.50000000  0.68750000 
  0.06250000  0.50000000  0.75000000 
  0.06250000  0.50000000  0.81250000 
  0.06250000  0.50000000  0.87500000 
  0.06250000  0.50000000  0.93750000 
  0.06250000  0.56250000  0.00000000 
  0.06250000  0.56250000  0.06250000 
  0.06250000  0.56250000  0.12500000 
  0.06250000  0.56250000  0.18750000 
  0.06250000  0.56250000  0.25000000 
  0.06250000  0.56250000  0.31250000 
  0.06250000  0.56250000  0.37500000 
  0.06250000  0.56250000  0.43750000 
  0.06250000  0.56250000  0.50000000 
  0.06250000  0.56250000  0.56250000 
  0.06250000  0.56250000  0.62500000 
  0.06250000  0.56250000  0.68750000 
  0.06250000  0.56250000  0.75000000 
  0.06250000  0.56250000  0.81250000 
  0.06250000  0.56250000  0.87500000 
  0.06250000  0.56250000  0.93750000 
  0.06250000  0.62500000  0.00000000 
  0.06250000  0.62500000  0.06250000 
  0.06250000  0.62500000  0.12500000 
  0.06250000  0.62500000  0.18750000 
  0.06250000  0.62500000  0.25000000 
  0.06250000  0.62500000  0.31250000 
  0.06250000  0.62500000  0.37500000 
  0.06250000  0.62500000  0.43750000 
  0.06250000  0.62500000  0.50000000 
  0.06250000  0.62500000  0.56250000 
  0.06250000  0.62500000  0.62500000 
  0.06250000  0.62500000  0.68750000 
  0.06250000  0.62500000  0.75000000 
  0.06250000  0.62500000  0.81250000 
  0.06250000  0.62500000  0.87500000 
  0.06250000  0.62500000  0.93750000 
  0.06250000  0.68750000  0.00000000 
  0.06250000  0.68750000  0.06250000 
  0.06250000  0.68750000  0.12500000 
  0.06250000  0.68750000  0.18750000 
  0.06250000  0.68750000  0.25000000 
  0.06250000  0.68750000  0.31250000 
  0.06250000  0.68750000  0.37500000 
  0.06250000  0.68750000  0.43750000 
  0.06250000  0.68750000  0.50000000 
  0.06250000  0.68750000  0.56250000 
  0.06250000  0.68750000  0.62500000 
  0.06250000  0.68750000  0.68750000 
  0.06250000  0.68750000  0.75000000 
  0.06250000  0.68750000  0.81250000 
  0.06250000  0.68750000  0.87500000 
  0.06250000  0.68750000  0.93750000 
  0.06250000  0.75000000  0.00000000 
  0.06250000  0.75000000  0.06250000 
  0.06250000  0.75000000  0.12500000 
  0.06250000  0.75000000  0.18750000 
  0.06250000  0.75000000  0.25000000 
  0.06250000  0.75000000  0.31250000 
  0.06250000  0.75000000  0.37500000 
  0.06250000  0.75000000  0.43750000 
  0.06250000  0.75000000  0.50000000 
  0.06250000  0.75000000  0.56250000 
  0.06250000  0.75000000  0.62500000 
  0.06250000  0.75000000  0.68750000 
  0.06250000  0.75000000  0.75000000 
  0.06250000  0.75000000  0.81250000 
  0.06250000  0.75000000  0.87500000 
  0.06250000  0.75000000  0.93750000 
  0.06250000  0.81250000  0.00000000 
  0.06250000  0.81250000  0.06250000 
  0.06250000  0.81250000  0.12500000 
  0.06250000  0.81250000  0.18750000 
  0.06250000  0.81250000  0.25000000 
  0.06250000  0.81250000  0.31250000 
  0.06250000  0.81250000  0.37500000 
  0.06250000  0.81250000  0.43750000 
  0.06250000  0.81250000  0.50000000 
  0.06250000  0.81250000  0.56250000 
  0.06250000  0.81250000  0.62500000 
  0.06250000  0.81250000  0.68750000 
  0.06250000  0.81250000  0.75000000 
  0.06250000  0.81250000  0.81250000 
  0.06250000  0.81250000  0.87500000 
  0.06250000  0.81250000  0.93750000 
  0.06250000  0.87500000  0.00000000 
  0.06250000  0.87500000  0.06250000 
  0.06250000  0.87500000  0.12500000 
  0.06250000  0.87500000  0.18750000 
  0.06250000  0.87500000  0.25000000 
  0.06250000  0.87500000  0.31250000 
  0.06250000  0.87500000  0.37500000 
  0.06250000  0.87500000  0.43750000 
  0.06250000  0.87500000  0.50000000 
  0.06250000  0.87500000  0.56250000 
  0.06250000  0.87500000  0.62500000 
  0.06250000  0.87500000  0.68750000 
  0.06250000  0.87500000  0.75000000 
  0.06250000  0.87500000  0.81250000 
  0.06250000  0.87500000  0.87500000 
  0.06250000  0.87500000  0.93750000 
  0.06250000  0.93750000  0.00000000 
  0.06250000  0.93750000  0.06250000 
  0.06250000  0.93750000  0.12500000 
  0.06250000  0.93750000  0.18750000 
  0.06250000  0.93750000  0.25000000 
  0.06250000  0.93750000  0.31250000 
  0.06250000  0.93750000  0.37500000 
  0.06250000  0.93750000  0.43750000 
  0.06250000  0.93750000  0.50000000 
  0.06250000  0.93750000  0.56250000 
  0.06250000  0.93750000  0.62500000 
  0.06250000  0.93750000  0.68750000 
  0.06250000  0.93750000  0.75000000 
  0.06250000  0.93750000  0.81250000 
  0.06250000  0.93750000  0.87500000 
  0.06250000  0.93750000  0.93750000 
  0.12500000  0.00000000  0.00000000 
  0.12500000  0.00000000  0.06250000 
  0.12500000  0.00000000  0.12500000 
  0.12500000  0.00000000  0.18750000 
  0.12500000  0.00000000  0.25000000 
  0.12500000  0.00000000  0.31250000 
  0.12500000  0.00000000  0.37500000 
  0.12500000  0.00000000  0.43750000 
  0.12500000  0.00000000  0.50000000 
  0.12500000  0.00000000  0.56250000 
  0.12500000  0.00000000  0.62500000 
  0.12500000  0.00000000  0.68750000 
  0.12500000  0.00000000  0.75000000 
  0.12500000  0.00000000  0.81250000 
  0.12500000  0.00000000  0.87500000 
  0.12500000  0.00000000  0.93750000 
  0.12500000  0.06250000  0.00000000 
  0.12500000  0.06250000  0.06250000 
  0.12500000  0.06250000  0.12500000 
  0.12500000  0.06250000  0.18750000 
  0.12500000  0.06250000  0.25000000 
  0.12500000  0.06250000  0.31250000 
  0.12500000  0.06250000  0.37500000 
  0.12500000  0.06250000  0.43750000 
  0.12500000  0.06250000  0.50000000 
  0.12500000  0.06250000  0.56250000 
  0.12500000  0.06250000  0.62500000 
  0.12500000  0.06250000  0.68750000 
  0.12500000  0.06250000  0.75000000 
  0.12500000  0.06250000  0.81250000 
  0.12500000  0.06250000  0.87500000 
  0.12500000  0.06250000  0.93750000 
  0.12500000  0.12500000  0.00000000 
  0.12500000  0.12500000  0.06250000 
  0.12500000  0.12500000  0.12500000 
  0.12500000  0.12500000  0.18750000 
  0.12500000  0.12500000  0.25000000 
  0.12500000  0.12500000  0.31250000 
  0.12500000  0.12500000  0.37500000 
  0.12500000  0.12500000  0.43750000 
  0.12500000  0.12500000  0.50000000 
  0.12500000  0.12500000  0.56250000 
  0.12500000  0.12500000  0.62500000 
  0.12500000  0.12500000  0.68750000 
  0.12500000  0.12500000  0.75000000 
  0.12500000  0.12500000  0.81250000 
  0.12500000  0.12500000  0.87500000 
  0.12500000  0.12500000  0.93750000 
  0.12500000  0.18750000  0.00000000 
  0.12500000  0.18750000  0.06250000 
  0.12500000  0.18750000  0.12500000 
  0.12500000  0.18750000  0.18750000 
  0.12500000  0.18750000  0.25000000 
  0.12500000  0.18750000  0.31250000 
  0.12500000  0.18750000  0.37500000 
  0.12500000  0.18750000  0.43750000 
  0.12500000  0.18750000  0.50000000 
  0.12500000  0.18750000  0.56250000 
  0.12500000  0.18750000  0.62500000 
  0.12500000  0.18750000  0.68750000 
  0.12500000  0.18750000  0.75000000 
  0.12500000  0.18750000  0.81250000 
  0.12500000  0.18750000  0.87500000 
  0.12500000  0.18750000  0.93750000 
  0.12500000  0.25000000  0.00000000 
  0.12500000  0.25000000  0.06250000 
  0.12500000  0.25000000  0.12500000 
  0.12500000  0.25000000  0.18750000 
  0.12500000  0.25000000  0.25000000 
  0.12500000  0.25000000  0.31250000 
  0.12500000  0.25000000  0.37500000 
  0.12500000  0.25000000  0.43750000 
  0.12500000  0.25000000  0.50000000 
  0.12500000  0.25000000  0.56250000 
  0.12500000  0.25000000  0.62500000 
  0.12500000  0.25000000  0.68750000 
  0.12500000  0.25000000  0.75000000 
  0.12500000  0.25000000  0.81250000 
  0.12500000  0.25000000  0.87500000 
  0.12500000  0.25000000  0.93750000 
  0.12500000  0.31250000  0.00000000 
  0.12500000  0.31250000  0.06250000 
  0.12500000  0.31250000  0.12500000 
  0.12500000  0.31250000  0.18750000 
  0.12500000  0.31250000  0.25000000 
  0.12500000  0.31250000  0.31250000 
  0.12500000  0.31250000  0.37500000 
  0.12500000  0.31250000  0.43750000 
  0.12500000  0.31250000  0.50000000 
  0.12500000  0.31250000  0.56250000 
  0.12500000  0.31250000  0.62500000 
  0.12500000  0.31250000  0.68750000 
  0.12500000  0.31250000  0.75000000 
  0.12500000  0.31250000  0.81250000 
  0.12500000  0.31250000  0.87500000 
  0.12500000  0.31250000  0.93750000 
  0.12500000  0.37500000  0.00000000 
  0.12500000  0.37500000  0.06250000 
  0.12500000  0.37500000  0.12500000 
  0.12500000  0.37500000  0.18750000 
  0.12500000  0.37500000  0.25000000 
  0.12500000  0.37500000  0.31250000 
  0.12500000  0.37500000  0.37500000 
  0.12500000  0.37500000  0.43750000 
  0.12500000  0.37500000  0.50000000 
  0.12500000  0.37500000  0.56250000 
  0.12500000  0.37500000  0.62500000 
  0.12500000  0.37500000  0.68750000 
  0.12500000  0.37500000  0.75000000 
  0.12500000  0.37500000  0.81250000 
  0.12500000  0.37500000  0.87500000 
  0.12500000  0.37500000  0.93750000 
  0.12500000  0.43750000  0.00000000 
  0.12500000  0.43750000  0.06250000 
  0.12500000  0.43750000  0.12500000 
  0.12500000  0.43750000  0.18750000 
  0.12500000  0.43750000  0.25000000 
  0.12500000  0.43750000  0.31250000 
  0.12500000  0.43750000  0.37500000 
  0.12500000  0.43750000  0.43750000 
  0.12500000  0.43750000  0.50000000 
  0.12500000  0.43750000  0.56250000 
  0.12500000  0.43750000  0.62500000 
  0.12500000  0.43750000  0.68750000 
  0.12500000  0.43750000  0.75000000 
  0.12500000  0.43750000  0.81250000 
  0.12500000  0.43750000  0.87500000 
  0.12500000  0.43750000  0.93750000 
  0.12500000  0.50000000  0.00000000 
  0.12500000  0.50000000  0.06250000 
  0.12500000  0.50000000  0.12500000 
  0.12500000  0.50000000  0.18750000 
  0.12500000  0.50000000  0.25000000 
  0.12500000  0.50000000  0.31250000 
  0.12500000  0.50000000  0.37500000 
  0.12500000  0.50000000  0.43750000 
  0.12500000  0.50000000  0.50000000 
  0.12500000  0.50000000  0.56250000 
  0.12500000  0.50000000  0.62500000 
  0.12500000  0.50000000  0.68750000 
  0.12500000  0.50000000  0.75000000 
  0.12500000  0.50000000  0.81250000 
  0.12500000  0.50000000  0.87500000 
  0.12500000  0.50000000  0.93750000 
  0.12500000  0.56250000  0.00000000 
  0.12500000  0.56250000  0.06250000 
  0.12500000  0.56250000  0.12500000 
  0.12500000  0.56250000  0.18750000 
  0.12500000  0.56250000  0.25000000 
  0.12500000  0.56250000  0.31250000 
  0.12500000  0.56250000  0.37500000 
  0.12500000  0.56250000  0.43750000 
  0.12500000  0.56250000  0.50000000 
  0.12500000  0.56250000  0.56250000 
  0.12500000  0.56250000  0.62500000 
  0.12500000  0.56250000  0.68750000 
  0.12500000  0.56250000  0.75000000 
  0.12500000  0.56250000  0.81250000 
  0.12500000  0.56250000  0.87500000 
  0.12500000  0.56250000  0.93750000 
  0.12500000  0.62500000  0.00000000 
  0.12500000  0.62500000  0.06250000 
  0.12500000  0.62500000  0.12500000 
  0.12500000  0.62500000  0.18750000 
  0.12500000  0.62500000  0.25000000 
  0.12500000  0.62500000  0.31250000 
  0.12500000  0.62500000  0.37500000 
  0.12500000  0.62500000  0.43750000 
  0.12500000  0.62500000  0.50000000 
  0.12500000  0.62500000  0.56250000 
  0.12500000  0.62500000  0.62500000 
  0.12500000  0.62500000  0.68750000 
  0.12500000  0.62500000  0.75000000 
  0.12500000  0.62500000  0.81250000 
  0.12500000  0.62500000  0.87500000 
  0.12500000  0.62500000  0.93750000 
  0.12500000  0.68750000  0.00000000 
  0.12500000  0.68750000  0.06250000 
  0.12500000  0.68750000  0.12500000 
  0.12500000  0.68750000  0.18750000 
  0.12500000  0.68750000  0.25000000 
  0.12500000  0.68750000  0.31250000 
  0.12500000  0.68750000  0.37500000 
  0.12500000  0.68750000  0.43750000 
  0.12500000  0.68750000  0.50000000 
  0.12500000  0.68750000  0.56250000 
  0.12500000  0.68750000  0.62500000 
  0.12500000  0.68750000  0.68750000 
  0.12500000  0.68750000  0.75000000 
  0.12500000  0.68750000  0.81250000 
  0.12500000  0.68750000  0.87500000 
  0.12500000  0.68750000  0.93750000 
  0.12500000  0.75000000  0.00000000 
  0.12500000  0.75000000  0.06250000 
  0.12500000  0.75000000  0.12500000 
  0.12500000  0.75000000  0.18750000 
  0.12500000  0.75000000  0.25000000 
  0.12500000  0.75000000  0.31250000 
  0.12500000  0.75000000  0.37500000 
  0.12500000  0.75000000  0.43750000 
  0.12500000  0.75000000  0.50000000 
  0.12500000  0.75000000  0.56250000 
  0.12500000  0.75000000  0.62500000 
  0.12500000  0.75000000  0.68750000 
  0.12500000  0.75000000  0.75000000 
  0.12500000  0.75000000  0.81250000 
  0.12500000  0.75000000  0.87500000 
  0.12500000  0.75000000  0.93750000 
  0.12500000  0.81250000  0.00000000 
  0.12500000  0.81250000  0.06250000 
  0.12500000  0.81250000  0.12500000 
  0.12500000  0.81250000  0.18750000 
  0.12500000  0.81250000  0.25000000 
  0.12500000  0.81250000  0.31250000 
  0.12500000  0.81250000  0.37500000 
  0.12500000  0.81250000  0.43750000 
  0.12500000  0.81250000  0.50000000 
  0.12500000  0.81250000  0.56250000 
  0.12500000  0.81250000  0.62500000 
  0.12500000  0.81250000  0.68750000 
  0.12500000  0.81250000  0.75000000 
  0.12500000  0.81250000  0.81250000 
  0.12500000  0.81250000  0.87500000 
  0.12500000  0.81250000  0.93750000 
  0.12500000  0.87500000  0.00000000 
  0.12500000  0.87500000  0.06250000 
  0.12500000  0.87500000  0.12500000 
  0.12500000  0.87500000  0.18750000 
  0.12500000  0.87500000  0.25000000 
  0.12500000  0.87500000  0.31250000 