 &control
    calculation='nscf'
    restart_mode='from_scratch',
    pseudo_dir = './',
    outdir='./'
    prefix='FeCl23D'
	 verbosity='high'
 /
&system
   ibrav = 5, nat= 3, ntyp= 2,
	 A=6.42277, cosAB=0.849279,
    ecutwfc =100.0, nspin = 1, nbnd= 24, ecutrho=1080.0,
    occupations='smearing', smearing='cold', degauss=0.01
 /
 &electrons
    conv_thr = 1.0e-8
 /
ATOMIC_SPECIES
 Fe 55.8470 Fe.pbe-spn-kjpaw_psl.1.0.0.UPF
 Cl 35.4527 Cl.pbe-n-kjpaw_psl.1.0.0.UPF
ATOMIC_POSITIONS crystal
 Fe   0.0000000000000000  0.0000000000000000  0.0000000000000000
 Cl   0.7421428700000000  0.7421428700000001  0.7421428700000001
 Cl   0.2578571299999999  0.2578571299999999  0.2578571299999999
K_POINTS crystal
4096
  0.00000000  0.00000000  0.00000000  2.441406e-04 
  0.00000000  0.00000000  0.06250000  2.441406e-04 
  0.00000000  0.00000000  0.12500000  2.441406e-04 
  0.00000000  0.00000000  0.18750000  2.441406e-04 
  0.00000000  0.00000000  0.25000000  2.441406e-04 
  0.00000000  0.00000000  0.31250000  2.441406e-04 
  0.00000000  0.00000000  0.37500000  2.441406e-04 
  0.00000000  0.00000000  0.43750000  2.441406e-04 
  0.00000000  0.00000000  0.50000000  2.441406e-04 
  0.00000000  0.00000000  0.56250000  2.441406e-04 
  0.00000000  0.00000000  0.62500000  2.441406e-04 
  0.00000000  0.00000000  0.68750000  2.441406e-04 
  0.00000000  0.00000000  0.75000000  2.441406e-04 
  0.00000000  0.00000000  0.81250000  2.441406e-04 
  0.00000000  0.00000000  0.87500000  2.441406e-04 
  0.00000000  0.00000000  0.93750000  2.441406e-04 
  0.00000000  0.06250000  0.00000000  2.441406e-04 
  0.00000000  0.06250000  0.06250000  2.441406e-04 
  0.00000000  0.06250000  0.12500000  2.441406e-04 
  0.00000000  0.06250000  0.18750000  2.441406e-04 
  0.00000000  0.06250000  0.25000000  2.441406e-04 
  0.00000000  0.06250000  0.31250000  2.441406e-04 
  0.00000000  0.06250000  0.37500000  2.441406e-04 
  0.00000000  0.06250000  0.43750000  2.441406e-04 
  0.00000000  0.06250000  0.50000000  2.441406e-04 
  0.00000000  0.06250000  0.56250000  2.441406e-04 
  0.00000000  0.06250000  0.62500000  2.441406e-04 
  0.00000000  0.06250000  0.68750000  2.441406e-04 
  0.00000000  0.06250000  0.75000000  2.441406e-04 
  0.00000000  0.06250000  0.81250000  2.441406e-04 
  0.00000000  0.06250000  0.87500000  2.441406e-04 
  0.00000000  0.06250000  0.93750000  2.441406e-04 
  0.00000000  0.12500000  0.00000000  2.441406e-04 
  0.00000000  0.12500000  0.06250000  2.441406e-04 
  0.00000000  0.12500000  0.12500000  2.441406e-04 
  0.00000000  0.12500000  0.18750000  2.441406e-04 
  0.00000000  0.12500000  0.25000000  2.441406e-04 
  0.00000000  0.12500000  0.31250000  2.441406e-04 
  0.00000000  0.12500000  0.37500000  2.441406e-04 
  0.00000000  0.12500000  0.43750000  2.441406e-04 
  0.00000000  0.12500000  0.50000000  2.441406e-04 
  0.00000000  0.12500000  0.56250000  2.441406e-04 
  0.00000000  0.12500000  0.62500000  2.441406e-04 
  0.00000000  0.12500000  0.68750000  2.441406e-04 
  0.00000000  0.12500000  0.75000000  2.441406e-04 
  0.00000000  0.12500000  0.81250000  2.441406e-04 
  0.00000000  0.12500000  0.87500000  2.441406e-04 
  0.00000000  0.12500000  0.93750000  2.441406e-04 
  0.00000000  0.18750000  0.00000000  2.441406e-04 
  0.00000000  0.18750000  0.06250000  2.441406e-04 
  0.00000000  0.18750000  0.12500000  2.441406e-04 
  0.00000000  0.18750000  0.18750000  2.441406e-04 
  0.00000000  0.18750000  0.25000000  2.441406e-04 
  0.00000000  0.18750000  0.31250000  2.441406e-04 
  0.00000000  0.18750000  0.37500000  2.441406e-04 
  0.00000000  0.18750000  0.43750000  2.441406e-04 
  0.00000000  0.18750000  0.50000000  2.441406e-04 
  0.00000000  0.18750000  0.56250000  2.441406e-04 
  0.00000000  0.18750000  0.62500000  2.441406e-04 
  0.00000000  0.18750000  0.68750000  2.441406e-04 
  0.00000000  0.18750000  0.75000000  2.441406e-04 
  0.00000000  0.18750000  0.81250000  2.441406e-04 
  0.00000000  0.18750000  0.87500000  2.441406e-04 
  0.00000000  0.18750000  0.93750000  2.441406e-04 
  0.00000000  0.25000000  0.00000000  2.441406e-04 
  0.00000000  0.25000000  0.06250000  2.441406e-04 
  0.00000000  0.25000000  0.12500000  2.441406e-04 
  0.00000000  0.25000000  0.18750000  2.441406e-04 
  0.00000000  0.25000000  0.25000000  2.441406e-04 
  0.00000000  0.25000000  0.31250000  2.441406e-04 
  0.00000000  0.25000000  0.37500000  2.441406e-04 
  0.00000000  0.25000000  0.43750000  2.441406e-04 
  0.00000000  0.25000000  0.50000000  2.441406e-04 
  0.00000000  0.25000000  0.56250000  2.441406e-04 
  0.00000000  0.25000000  0.62500000  2.441406e-04 
  0.00000000  0.25000000  0.68750000  2.441406e-04 
  0.00000000  0.25000000  0.75000000  2.441406e-04 
  0.00000000  0.25000000  0.81250000  2.441406e-04 
  0.00000000  0.25000000  0.87500000  2.441406e-04 
  0.00000000  0.25000000  0.93750000  2.441406e-04 
  0.00000000  0.31250000  0.00000000  2.441406e-04 
  0.00000000  0.31250000  0.06250000  2.441406e-04 
  0.00000000  0.31250000  0.12500000  2.441406e-04 
  0.00000000  0.31250000  0.18750000  2.441406e-04 
  0.00000000  0.31250000  0.25000000  2.441406e-04 
  0.00000000  0.31250000  0.31250000  2.441406e-04 
  0.00000000  0.31250000  0.37500000  2.441406e-04 
  0.00000000  0.31250000  0.43750000  2.441406e-04 
  0.00000000  0.31250000  0.50000000  2.441406e-04 
  0.00000000  0.31250000  0.56250000  2.441406e-04 
  0.00000000  0.31250000  0.62500000  2.441406e-04 
  0.00000000  0.31250000  0.68750000  2.441406e-04 
  0.00000000  0.31250000  0.75000000  2.441406e-04 
  0.00000000  0.31250000  0.81250000  2.441406e-04 
  0.00000000  0.31250000  0.87500000  2.441406e-04 
  0.00000000  0.31250000  0.93750000  2.441406e-04 
  0.00000000  0.37500000  0.00000000  2.441406e-04 
  0.00000000  0.37500000  0.06250000  2.441406e-04 
  0.00000000  0.37500000  0.12500000  2.441406e-04 
  0.00000000  0.37500000  0.18750000  2.441406e-04 
  0.00000000  0.37500000  0.25000000  2.441406e-04 
  0.00000000  0.37500000  0.31250000  2.441406e-04 
  0.00000000  0.37500000  0.37500000  2.441406e-04 
  0.00000000  0.37500000  0.43750000  2.441406e-04 
  0.00000000  0.37500000  0.50000000  2.441406e-04 
  0.00000000  0.37500000  0.56250000  2.441406e-04 
  0.00000000  0.37500000  0.62500000  2.441406e-04 
  0.00000000  0.37500000  0.68750000  2.441406e-04 
  0.00000000  0.37500000  0.75000000  2.441406e-04 
  0.00000000  0.37500000  0.81250000  2.441406e-04 
  0.00000000  0.37500000  0.87500000  2.441406e-04 
  0.00000000  0.37500000  0.93750000  2.441406e-04 
  0.00000000  0.43750000  0.00000000  2.441406e-04 
  0.00000000  0.43750000  0.06250000  2.441406e-04 
  0.00000000  0.43750000  0.12500000  2.441406e-04 
  0.00000000  0.43750000  0.18750000  2.441406e-04 
  0.00000000  0.43750000  0.25000000  2.441406e-04 
  0.00000000  0.43750000  0.31250000  2.441406e-04 
  0.00000000  0.43750000  0.37500000  2.441406e-04 
  0.00000000  0.43750000  0.43750000  2.441406e-04 
  0.00000000  0.43750000  0.50000000  2.441406e-04 
  0.00000000  0.43750000  0.56250000  2.441406e-04 
  0.00000000  0.43750000  0.62500000  2.441406e-04 
  0.00000000  0.43750000  0.68750000  2.441406e-04 
  0.00000000  0.43750000  0.75000000  2.441406e-04 
  0.00000000  0.43750000  0.81250000  2.441406e-04 
  0.00000000  0.43750000  0.87500000  2.441406e-04 
  0.00000000  0.43750000  0.93750000  2.441406e-04 
  0.00000000  0.50000000  0.00000000  2.441406e-04 
  0.00000000  0.50000000  0.06250000  2.441406e-04 
  0.00000000  0.50000000  0.12500000  2.441406e-04 
  0.00000000  0.50000000  0.18750000  2.441406e-04 
  0.00000000  0.50000000  0.25000000  2.441406e-04 
  0.00000000  0.50000000  0.31250000  2.441406e-04 
  0.00000000  0.50000000  0.37500000  2.441406e-04 
  0.00000000  0.50000000  0.43750000  2.441406e-04 
  0.00000000  0.50000000  0.50000000  2.441406e-04 
  0.00000000  0.50000000  0.56250000  2.441406e-04 
  0.00000000  0.50000000  0.62500000  2.441406e-04 
  0.00000000  0.50000000  0.68750000  2.441406e-04 
  0.00000000  0.50000000  0.75000000  2.441406e-04 
  0.00000000  0.50000000  0.81250000  2.441406e-04 
  0.00000000  0.50000000  0.87500000  2.441406e-04 
  0.00000000  0.50000000  0.93750000  2.441406e-04 
  0.00000000  0.56250000  0.00000000  2.441406e-04 
  0.00000000  0.56250000  0.06250000  2.441406e-04 
  0.00000000  0.56250000  0.12500000  2.441406e-04 
  0.00000000  0.56250000  0.18750000  2.441406e-04 
  0.00000000  0.56250000  0.25000000  2.441406e-04 
  0.00000000  0.56250000  0.31250000  2.441406e-04 
  0.00000000  0.56250000  0.37500000  2.441406e-04 
  0.00000000  0.56250000  0.43750000  2.441406e-04 
  0.00000000  0.56250000  0.50000000  2.441406e-04 
  0.00000000  0.56250000  0.56250000  2.441406e-04 
  0.00000000  0.56250000  0.62500000  2.441406e-04 
  0.00000000  0.56250000  0.68750000  2.441406e-04 
  0.00000000  0.56250000  0.75000000  2.441406e-04 
  0.00000000  0.56250000  0.81250000  2.441406e-04 
  0.00000000  0.56250000  0.87500000  2.441406e-04 
  0.00000000  0.56250000  0.93750000  2.441406e-04 
  0.00000000  0.62500000  0.00000000  2.441406e-04 
  0.00000000  0.62500000  0.06250000  2.441406e-04 
  0.00000000  0.62500000  0.12500000  2.441406e-04 
  0.00000000  0.62500000  0.18750000  2.441406e-04 
  0.00000000  0.62500000  0.25000000  2.441406e-04 
  0.00000000  0.62500000  0.31250000  2.441406e-04 
  0.00000000  0.62500000  0.37500000  2.441406e-04 
  0.00000000  0.62500000  0.43750000  2.441406e-04 
  0.00000000  0.62500000  0.50000000  2.441406e-04 
  0.00000000  0.62500000  0.56250000  2.441406e-04 
  0.00000000  0.62500000  0.62500000  2.441406e-04 
  0.00000000  0.62500000  0.68750000  2.441406e-04 
  0.00000000  0.62500000  0.75000000  2.441406e-04 
  0.00000000  0.62500000  0.81250000  2.441406e-04 
  0.00000000  0.62500000  0.87500000  2.441406e-04 
  0.00000000  0.62500000  0.93750000  2.441406e-04 
  0.00000000  0.68750000  0.00000000  2.441406e-04 
  0.00000000  0.68750000  0.06250000  2.441406e-04 
  0.00000000  0.68750000  0.12500000  2.441406e-04 
  0.00000000  0.68750000  0.18750000  2.441406e-04 
  0.00000000  0.68750000  0.25000000  2.441406e-04 
  0.00000000  0.68750000  0.31250000  2.441406e-04 
  0.00000000  0.68750000  0.37500000  2.441406e-04 
  0.00000000  0.68750000  0.43750000  2.441406e-04 
  0.00000000  0.68750000  0.50000000  2.441406e-04 
  0.00000000  0.68750000  0.56250000  2.441406e-04 
  0.00000000  0.68750000  0.62500000  2.441406e-04 
  0.00000000  0.68750000  0.68750000  2.441406e-04 
  0.00000000  0.68750000  0.75000000  2.441406e-04 
  0.00000000  0.68750000  0.81250000  2.441406e-04 
  0.00000000  0.68750000  0.87500000  2.441406e-04 
  0.00000000  0.68750000  0.93750000  2.441406e-04 
  0.00000000  0.75000000  0.00000000  2.441406e-04 
  0.00000000  0.75000000  0.06250000  2.441406e-04 
  0.00000000  0.75000000  0.12500000  2.441406e-04 
  0.00000000  0.75000000  0.18750000  2.441406e-04 
  0.00000000  0.75000000  0.25000000  2.441406e-04 
  0.00000000  0.75000000  0.31250000  2.441406e-04 
  0.00000000  0.75000000  0.37500000  2.441406e-04 
  0.00000000  0.75000000  0.43750000  2.441406e-04 
  0.00000000  0.75000000  0.50000000  2.441406e-04 
  0.00000000  0.75000000  0.56250000  2.441406e-04 
  0.00000000  0.75000000  0.62500000  2.441406e-04 
  0.00000000  0.75000000  0.68750000  2.441406e-04 
  0.00000000  0.75000000  0.75000000  2.441406e-04 
  0.00000000  0.75000000  0.81250000  2.441406e-04 
  0.00000000  0.75000000  0.87500000  2.441406e-04 
  0.00000000  0.75000000  0.93750000  2.441406e-04 
  0.00000000  0.81250000  0.00000000  2.441406e-04 
  0.00000000  0.81250000  0.06250000  2.441406e-04 
  0.00000000  0.81250000  0.12500000  2.441406e-04 
  0.00000000  0.81250000  0.18750000  2.441406e-04 
  0.00000000  0.81250000  0.25000000  2.441406e-04 
  0.00000000  0.81250000  0.31250000  2.441406e-04 
  0.00000000  0.81250000  0.37500000  2.441406e-04 
  0.00000000  0.81250000  0.43750000  2.441406e-04 
  0.00000000  0.81250000  0.50000000  2.441406e-04 
  0.00000000  0.81250000  0.56250000  2.441406e-04 
  0.00000000  0.81250000  0.62500000  2.441406e-04 
  0.00000000  0.81250000  0.68750000  2.441406e-04 
  0.00000000  0.81250000  0.75000000  2.441406e-04 
  0.00000000  0.81250000  0.81250000  2.441406e-04 
  0.00000000  0.81250000  0.87500000  2.441406e-04 
  0.00000000  0.81250000  0.93750000  2.441406e-04 
  0.00000000  0.87500000  0.00000000  2.441406e-04 
  0.00000000  0.87500000  0.06250000  2.441406e-04 
  0.00000000  0.87500000  0.12500000  2.441406e-04 
  0.00000000  0.87500000  0.18750000  2.441406e-04 
  0.00000000  0.87500000  0.25000000  2.441406e-04 
  0.00000000  0.87500000  0.31250000  2.441406e-04 
  0.00000000  0.87500000  0.37500000  2.441406e-04 
  0.00000000  0.87500000  0.43750000  2.441406e-04 
  0.00000000  0.87500000  0.50000000  2.441406e-04 
  0.00000000  0.87500000  0.56250000  2.441406e-04 
  0.00000000  0.87500000  0.62500000  2.441406e-04 
  0.00000000  0.87500000  0.68750000  2.441406e-04 
  0.00000000  0.87500000  0.75000000  2.441406e-04 
  0.00000000  0.87500000  0.81250000  2.441406e-04 
  0.00000000  0.87500000  0.87500000  2.441406e-04 
  0.00000000  0.87500000  0.93750000  2.441406e-04 
  0.00000000  0.93750000  0.00000000  2.441406e-04 
  0.00000000  0.93750000  0.06250000  2.441406e-04 
  0.00000000  0.93750000  0.12500000  2.441406e-04 
  0.00000000  0.93750000  0.18750000  2.441406e-04 
  0.00000000  0.93750000  0.25000000  2.441406e-04 
  0.00000000  0.93750000  0.31250000  2.441406e-04 
  0.00000000  0.93750000  0.37500000  2.441406e-04 
  0.00000000  0.93750000  0.43750000  2.441406e-04 
  0.00000000  0.93750000  0.50000000  2.441406e-04 
  0.00000000  0.93750000  0.56250000  2.441406e-04 
  0.00000000  0.93750000  0.62500000  2.441406e-04 
  0.00000000  0.93750000  0.68750000  2.441406e-04 
  0.00000000  0.93750000  0.75000000  2.441406e-04 
  0.00000000  0.93750000  0.81250000  2.441406e-04 
  0.00000000  0.93750000  0.87500000  2.441406e-04 
  0.00000000  0.93750000  0.93750000  2.441406e-04 
  0.06250000  0.00000000  0.00000000  2.441406e-04 
  0.06250000  0.00000000  0.06250000  2.441406e-04 
  0.06250000  0.00000000  0.12500000  2.441406e-04 
  0.06250000  0.00000000  0.18750000  2.441406e-04 
  0.06250000  0.00000000  0.25000000  2.441406e-04 
  0.06250000  0.00000000  0.31250000  2.441406e-04 
  0.06250000  0.00000000  0.37500000  2.441406e-04 
  0.06250000  0.00000000  0.43750000  2.441406e-04 
  0.06250000  0.00000000  0.50000000  2.441406e-04 
  0.06250000  0.00000000  0.56250000  2.441406e-04 
  0.06250000  0.00000000  0.62500000  2.441406e-04 
  0.06250000  0.00000000  0.68750000  2.441406e-04 
  0.06250000  0.00000000  0.75000000  2.441406e-04 
  0.06250000  0.00000000  0.81250000  2.441406e-04 
  0.06250000  0.00000000  0.87500000  2.441406e-04 
  0.06250000  0.00000000  0.93750000  2.441406e-04 
  0.06250000  0.06250000  0.00000000  2.441406e-04 
  0.06250000  0.06250000  0.06250000  2.441406e-04 
  0.06250000  0.06250000  0.12500000  2.441406e-04 
  0.06250000  0.06250000  0.18750000  2.441406e-04 
  0.06250000  0.06250000  0.25000000  2.441406e-04 
  0.06250000  0.06250000  0.31250000  2.441406e-04 
  0.06250000  0.06250000  0.37500000  2.441406e-04 
  0.06250000  0.06250000  0.43750000  2.441406e-04 
  0.06250000  0.06250000  0.50000000  2.441406e-04 
  0.06250000  0.06250000  0.56250000  2.441406e-04 
  0.06250000  0.06250000  0.62500000  2.441406e-04 
  0.06250000  0.06250000  0.68750000  2.441406e-04 
  0.06250000  0.06250000  0.75000000  2.441406e-04 
  0.06250000  0.06250000  0.81250000  2.441406e-04 
  0.06250000  0.06250000  0.87500000  2.441406e-04 
  0.06250000  0.06250000  0.93750000  2.441406e-04 
  0.06250000  0.12500000  0.00000000  2.441406e-04 
  0.06250000  0.12500000  0.06250000  2.441406e-04 
  0.06250000  0.12500000  0.12500000  2.441406e-04 
  0.06250000  0.12500000  0.18750000  2.441406e-04 
  0.06250000  0.12500000  0.25000000  2.441406e-04 
  0.06250000  0.12500000  0.31250000  2.441406e-04 
  0.06250000  0.12500000  0.37500000  2.441406e-04 
  0.06250000  0.12500000  0.43750000  2.441406e-04 
  0.06250000  0.12500000  0.50000000  2.441406e-04 
  0.06250000  0.12500000  0.56250000  2.441406e-04 
  0.06250000  0.12500000  0.62500000  2.441406e-04 
  0.06250000  0.12500000  0.68750000  2.441406e-04 
  0.06250000  0.12500000  0.75000000  2.441406e-04 
  0.06250000  0.12500000  0.81250000  2.441406e-04 
  0.06250000  0.12500000  0.87500000  2.441406e-04 
  0.06250000  0.12500000  0.93750000  2.441406e-04 
  0.06250000  0.18750000  0.00000000  2.441406e-04 
  0.06250000  0.18750000  0.06250000  2.441406e-04 
  0.06250000  0.18750000  0.12500000  2.441406e-04 
  0.06250000  0.18750000  0.18750000  2.441406e-04 
  0.06250000  0.18750000  0.25000000  2.441406e-04 
  0.06250000  0.18750000  0.31250000  2.441406e-04 
  0.06250000  0.18750000  0.37500000  2.441406e-04 
  0.06250000  0.18750000  0.43750000  2.441406e-04 
  0.06250000  0.18750000  0.50000000  2.441406e-04 
  0.06250000  0.18750000  0.56250000  2.441406e-04 
  0.06250000  0.18750000  0.62500000  2.441406e-04 
  0.06250000  0.18750000  0.68750000  2.441406e-04 
  0.06250000  0.18750000  0.75000000  2.441406e-04 
  0.06250000  0.18750000  0.81250000  2.441406e-04 
  0.06250000  0.18750000  0.87500000  2.441406e-04 
  0.06250000  0.18750000  0.93750000  2.441406e-04 
  0.06250000  0.25000000  0.00000000  2.441406e-04 
  0.06250000  0.25000000  0.06250000  2.441406e-04 
  0.06250000  0.25000000  0.12500000  2.441406e-04 
  0.06250000  0.25000000  0.18750000  2.441406e-04 
  0.06250000  0.25000000  0.25000000  2.441406e-04 
  0.06250000  0.25000000  0.31250000  2.441406e-04 
  0.06250000  0.25000000  0.37500000  2.441406e-04 
  0.06250000  0.25000000  0.43750000  2.441406e-04 
  0.06250000  0.25000000  0.50000000  2.441406e-04 
  0.06250000  0.25000000  0.56250000  2.441406e-04 
  0.06250000  0.25000000  0.62500000  2.441406e-04 
  0.06250000  0.25000000  0.68750000  2.441406e-04 
  0.06250000  0.25000000  0.75000000  2.441406e-04 
  0.06250000  0.25000000  0.81250000  2.441406e-04 
  0.06250000  0.25000000  0.87500000  2.441406e-04 
  0.06250000  0.25000000  0.93750000  2.441406e-04 
  0.06250000  0.31250000  0.00000000  2.441406e-04 
  0.06250000  0.31250000  0.06250000  2.441406e-04 
  0.06250000  0.31250000  0.12500000  2.441406e-04 
  0.06250000  0.31250000  0.18750000  2.441406e-04 
  0.06250000  0.31250000  0.25000000  2.441406e-04 
  0.06250000  0.31250000  0.31250000  2.441406e-04 
  0.06250000  0.31250000  0.37500000  2.441406e-04 
  0.06250000  0.31250000  0.43750000  2.441406e-04 
  0.06250000  0.31250000  0.50000000  2.441406e-04 
  0.06250000  0.31250000  0.56250000  2.441406e-04 
  0.06250000  0.31250000  0.62500000  2.441406e-04 
  0.06250000  0.31250000  0.68750000  2.441406e-04 
  0.06250000  0.31250000  0.75000000  2.441406e-04 
  0.06250000  0.31250000  0.81250000  2.441406e-04 
  0.06250000  0.31250000  0.87500000  2.441406e-04 
  0.06250000  0.31250000  0.93750000  2.441406e-04 
  0.06250000  0.37500000  0.00000000  2.441406e-04 
  0.06250000  0.37500000  0.06250000  2.441406e-04 
  0.06250000  0.37500000  0.12500000  2.441406e-04 
  0.06250000  0.37500000  0.18750000  2.441406e-04 
  0.06250000  0.37500000  0.25000000  2.441406e-04 
  0.06250000  0.37500000  0.31250000  2.441406e-04 
  0.06250000  0.37500000  0.37500000  2.441406e-04 
  0.06250000  0.37500000  0.43750000  2.441406e-04 
  0.06250000  0.37500000  0.50000000  2.441406e-04 
  0.06250000  0.37500000  0.56250000  2.441406e-04 
  0.06250000  0.37500000  0.62500000  2.441406e-04 
  0.06250000  0.37500000  0.68750000  2.441406e-04 
  0.06250000  0.37500000  0.75000000  2.441406e-04 
  0.06250000  0.37500000  0.81250000  2.441406e-04 
  0.06250000  0.37500000  0.87500000  2.441406e-04 
  0.06250000  0.37500000  0.93750000  2.441406e-04 
  0.06250000  0.43750000  0.00000000  2.441406e-04 
  0.06250000  0.43750000  0.06250000  2.441406e-04 
  0.06250000  0.43750000  0.12500000  2.441406e-04 
  0.06250000  0.43750000  0.18750000  2.441406e-04 
  0.06250000  0.43750000  0.25000000  2.441406e-04 
  0.06250000  0.43750000  0.31250000  2.441406e-04 
  0.06250000  0.43750000  0.37500000  2.441406e-04 
  0.06250000  0.43750000  0.43750000  2.441406e-04 
  0.06250000  0.43750000  0.50000000  2.441406e-04 
  0.06250000  0.43750000  0.56250000  2.441406e-04 
  0.06250000  0.43750000  0.62500000  2.441406e-04 
  0.06250000  0.43750000  0.68750000  2.441406e-04 
  0.06250000  0.43750000  0.75000000  2.441406e-04 
  0.06250000  0.43750000  0.81250000  2.441406e-04 
  0.06250000  0.43750000  0.87500000  2.441406e-04 
  0.06250000  0.43750000  0.93750000  2.441406e-04 
  0.06250000  0.50000000  0.00000000  2.441406e-04 
  0.06250000  0.50000000  0.06250000  2.441406e-04 
  0.06250000  0.50000000  0.12500000  2.441406e-04 
  0.06250000  0.50000000  0.18750000  2.441406e-04 
  0.06250000  0.50000000  0.25000000  2.441406e-04 
  0.06250000  0.50000000  0.31250000  2.441406e-04 
  0.06250000  0.50000000  0.37500000  2.441406e-04 
  0.06250000  0.50000000  0.43750000  2.441406e-04 
  0.06250000  0.50000000  0.50000000  2.441406e-04 
  0.06250000  0.50000000  0.56250000  2.441406e-04 
  0.06250000  0.50000000  0.62500000  2.441406e-04 
  0.06250000  0.50000000  0.68750000  2.441406e-04 
  0.06250000  0.50000000  0.75000000  2.441406e-04 
  0.06250000  0.50000000  0.81250000  2.441406e-04 
  0.06250000  0.50000000  0.87500000  2.441406e-04 
  0.06250000  0.50000000  0.93750000  2.441406e-04 
  0.06250000  0.56250000  0.00000000  2.441406e-04 
  0.06250000  0.56250000  0.06250000  2.441406e-04 
  0.06250000  0.56250000  0.12500000  2.441406e-04 
  0.06250000  0.56250000  0.18750000  2.441406e-04 
  0.06250000  0.56250000  0.25000000  2.441406e-04 
  0.06250000  0.56250000  0.31250000  2.441406e-04 
  0.06250000  0.56250000  0.37500000  2.441406e-04 
  0.06250000  0.56250000  0.43750000  2.441406e-04 
  0.06250000  0.56250000  0.50000000  2.441406e-04 
  0.06250000  0.56250000  0.56250000  2.441406e-04 
  0.06250000  0.56250000  0.62500000  2.441406e-04 
  0.06250000  0.56250000  0.68750000  2.441406e-04 
  0.06250000  0.56250000  0.75000000  2.441406e-04 
  0.06250000  0.56250000  0.81250000  2.441406e-04 
  0.06250000  0.56250000  0.87500000  2.441406e-04 
  0.06250000  0.56250000  0.93750000  2.441406e-04 
  0.06250000  0.62500000  0.00000000  2.441406e-04 
  0.06250000  0.62500000  0.06250000  2.441406e-04 
  0.06250000  0.62500000  0.12500000  2.441406e-04 
  0.06250000  0.62500000  0.18750000  2.441406e-04 
  0.06250000  0.62500000  0.25000000  2.441406e-04 
  0.06250000  0.62500000  0.31250000  2.441406e-04 
  0.06250000  0.62500000  0.37500000  2.441406e-04 
  0.06250000  0.62500000  0.43750000  2.441406e-04 
  0.06250000  0.62500000  0.50000000  2.441406e-04 
  0.06250000  0.62500000  0.56250000  2.441406e-04 
  0.06250000  0.62500000  0.62500000  2.441406e-04 
  0.06250000  0.62500000  0.68750000  2.441406e-04 
  0.06250000  0.62500000  0.75000000  2.441406e-04 
  0.06250000  0.62500000  0.81250000  2.441406e-04 
  0.06250000  0.62500000  0.87500000  2.441406e-04 
  0.06250000  0.62500000  0.93750000  2.441406e-04 
  0.06250000  0.68750000  0.00000000  2.441406e-04 
  0.06250000  0.68750000  0.06250000  2.441406e-04 
  0.06250000  0.68750000  0.12500000  2.441406e-04 
  0.06250000  0.68750000  0.18750000  2.441406e-04 
  0.06250000  0.68750000  0.25000000  2.441406e-04 
  0.06250000  0.68750000  0.31250000  2.441406e-04 
  0.06250000  0.68750000  0.37500000  2.441406e-04 
  0.06250000  0.68750000  0.43750000  2.441406e-04 
  0.06250000  0.68750000  0.50000000  2.441406e-04 
  0.06250000  0.68750000  0.56250000  2.441406e-04 
  0.06250000  0.68750000  0.62500000  2.441406e-04 
  0.06250000  0.68750000  0.68750000  2.441406e-04 
  0.06250000  0.68750000  0.75000000  2.441406e-04 
  0.06250000  0.68750000  0.81250000  2.441406e-04 
  0.06250000  0.68750000  0.87500000  2.441406e-04 
  0.06250000  0.68750000  0.93750000  2.441406e-04 
  0.06250000  0.75000000  0.00000000  2.441406e-04 
  0.06250000  0.75000000  0.06250000  2.441406e-04 
  0.06250000  0.75000000  0.12500000  2.441406e-04 
  0.06250000  0.75000000  0.18750000  2.441406e-04 
  0.06250000  0.75000000  0.25000000  2.441406e-04 
  0.06250000  0.75000000  0.31250000  2.441406e-04 
  0.06250000  0.75000000  0.37500000  2.441406e-04 
  0.06250000  0.75000000  0.43750000  2.441406e-04 
  0.06250000  0.75000000  0.50000000  2.441406e-04 
  0.06250000  0.75000000  0.56250000  2.441406e-04 
  0.06250000  0.75000000  0.62500000  2.441406e-04 
  0.06250000  0.75000000  0.68750000  2.441406e-04 
  0.06250000  0.75000000  0.75000000  2.441406e-04 
  0.06250000  0.75000000  0.81250000  2.441406e-04 
  0.06250000  0.75000000  0.87500000  2.441406e-04 
  0.06250000  0.75000000  0.93750000  2.441406e-04 
  0.06250000  0.81250000  0.00000000  2.441406e-04 
  0.06250000  0.81250000  0.06250000  2.441406e-04 
  0.06250000  0.81250000  0.12500000  2.441406e-04 
  0.06250000  0.81250000  0.18750000  2.441406e-04 
  0.06250000  0.81250000  0.25000000  2.441406e-04 
  0.06250000  0.81250000  0.31250000  2.441406e-04 
  0.06250000  0.81250000  0.37500000  2.441406e-04 
  0.06250000  0.81250000  0.43750000  2.441406e-04 
  0.06250000  0.81250000  0.50000000  2.441406e-04 
  0.06250000  0.81250000  0.56250000  2.441406e-04 
  0.06250000  0.81250000  0.62500000  2.441406e-04 
  0.06250000  0.81250000  0.68750000  2.441406e-04 
  0.06250000  0.81250000  0.75000000  2.441406e-04 
  0.06250000  0.81250000  0.81250000  2.441406e-04 
  0.06250000  0.81250000  0.87500000  2.441406e-04 
  0.06250000  0.81250000  0.93750000  2.441406e-04 
  0.06250000  0.87500000  0.00000000  2.441406e-04 
  0.06250000  0.87500000  0.06250000  2.441406e-04 
  0.06250000  0.87500000  0.12500000  2.441406e-04 
  0.06250000  0.87500000  0.18750000  2.441406e-04 
  0.06250000  0.87500000  0.25000000  2.441406e-04 
  0.06250000  0.87500000  0.31250000  2.441406e-04 
  0.06250000  0.87500000  0.37500000  2.441406e-04 
  0.06250000  0.87500000  0.43750000  2.441406e-04 
  0.06250000  0.87500000  0.50000000  2.441406e-04 
  0.06250000  0.87500000  0.56250000  2.441406e-04 
  0.06250000  0.87500000  0.62500000  2.441406e-04 
  0.06250000  0.87500000  0.68750000  2.441406e-04 
  0.06250000  0.87500000  0.75000000  2.441406e-04 
  0.06250000  0.87500000  0.81250000  2.441406e-04 
  0.06250000  0.87500000  0.87500000  2.441406e-04 
  0.06250000  0.87500000  0.93750000  2.441406e-04 
  0.06250000  0.93750000  0.00000000  2.441406e-04 
  0.06250000  0.93750000  0.06250000  2.441406e-04 
  0.06250000  0.93750000  0.12500000  2.441406e-04 
  0.06250000  0.93750000  0.18750000  2.441406e-04 
  0.06250000  0.93750000  0.25000000  2.441406e-04 
  0.06250000  0.93750000  0.31250000  2.441406e-04 
  0.06250000  0.93750000  0.37500000  2.441406e-04 
  0.06250000  0.93750000  0.43750000  2.441406e-04 
  0.06250000  0.93750000  0.50000000  2.441406e-04 
  0.06250000  0.93750000  0.56250000  2.441406e-04 
  0.06250000  0.93750000  0.62500000  2.441406e-04 
  0.06250000  0.93750000  0.68750000  2.441406e-04 
  0.06250000  0.93750000  0.75000000  2.441406e-04 
  0.06250000  0.93750000  0.81250000  2.441406e-04 
  0.06250000  0.93750000  0.87500000  2.441406e-04 
  0.06250000  0.93750000  0.93750000  2.441406e-04 
  0.12500000  0.00000000  0.00000000  2.441406e-04 
  0.12500000  0.00000000  0.06250000  2.441406e-04 
  0.12500000  0.00000000  0.12500000  2.441406e-04 
  0.12500000  0.00000000  0.18750000  2.441406e-04 
  0.12500000  0.00000000  0.25000000  2.441406e-04 
  0.12500000  0.00000000  0.31250000  2.441406e-04 
  0.12500000  0.00000000  0.37500000  2.441406e-04 
  0.12500000  0.00000000  0.43750000  2.441406e-04 
  0.12500000  0.00000000  0.50000000  2.441406e-04 
  0.12500000  0.00000000  0.56250000  2.441406e-04 
  0.12500000  0.00000000  0.62500000  2.441406e-04 
  0.12500000  0.00000000  0.68750000  2.441406e-04 
  0.12500000  0.00000000  0.75000000  2.441406e-04 
  0.12500000  0.00000000  0.81250000  2.441406e-04 
  0.12500000  0.00000000  0.87500000  2.441406e-04 
  0.12500000  0.00000000  0.93750000  2.441406e-04 
  0.12500000  0.06250000  0.00000000  2.441406e-04 
  0.12500000  0.06250000  0.06250000  2.441406e-04 
  0.12500000  0.06250000  0.12500000  2.441406e-04 
  0.12500000  0.06250000  0.18750000  2.441406e-04 
  0.12500000  0.06250000  0.25000000  2.441406e-04 
  0.12500000  0.06250000  0.31250000  2.441406e-04 
  0.12500000  0.06250000  0.37500000  2.441406e-04 
  0.12500000  0.06250000  0.43750000  2.441406e-04 
  0.12500000  0.06250000  0.50000000  2.441406e-04 
  0.12500000  0.06250000  0.56250000  2.441406e-04 
  0.12500000  0.06250000  0.62500000  2.441406e-04 
  0.12500000  0.06250000  0.68750000  2.441406e-04 
  0.12500000  0.06250000  0.75000000  2.441406e-04 
  0.12500000  0.06250000  0.81250000  2.441406e-04 
  0.12500000  0.06250000  0.87500000  2.441406e-04 
  0.12500000  0.06250000  0.93750000  2.441406e-04 
  0.12500000  0.12500000  0.00000000  2.441406e-04 
  0.12500000  0.12500000  0.06250000  2.441406e-04 
  0.12500000  0.12500000  0.12500000  2.441406e-04 
  0.12500000  0.12500000  0.18750000  2.441406e-04 
  0.12500000  0.12500000  0.25000000  2.441406e-04 
  0.12500000  0.12500000  0.31250000  2.441406e-04 
  0.12500000  0.12500000  0.37500000  2.441406e-04 
  0.12500000  0.12500000  0.43750000  2.441406e-04 
  0.12500000  0.12500000  0.50000000  2.441406e-04 
  0.12500000  0.12500000  0.56250000  2.441406e-04 
  0.12500000  0.12500000  0.62500000  2.441406e-04 
  0.12500000  0.12500000  0.68750000  2.441406e-04 
  0.12500000  0.12500000  0.75000000  2.441406e-04 
  0.12500000  0.12500000  0.81250000  2.441406e-04 
  0.12500000  0.12500000  0.87500000  2.441406e-04 
  0.12500000  0.12500000  0.93750000  2.441406e-04 
  0.12500000  0.18750000  0.00000000  2.441406e-04 
  0.12500000  0.18750000  0.06250000  2.441406e-04 
  0.12500000  0.18750000  0.12500000  2.441406e-04 