&inputpp
   outdir = './'
   prefix = 'FeCl23D'
   seedname = 'FeCl2'
   spin_component = 'none'
   write_mmn = .true.
   write_amn = .true.
	write_dmn = .true.
   write_unk = .true.
   wan_mode = 'standalone'
/
