num_wann        = 5
num_iter        = 150
num_bands       = 5
exclude_bands: 1-12,18-28


dis_win_min = -3
dis_win_max =  1

#dis_froz_min = -5
#dis_froz_max = 5

bands_plot         = true
guiding_centres = true
write_hr           = true
wannier_plot       = true
fermi_surface_plot = true
site_symmetry      = true
#symmetrize_eps=  1d-1
wannier_plot_supercell = 3

Fermi_energy = -0.506
kmesh_tol=0.0001


begin atoms_frac
         Fe  0.0000000  0.0000000  0.5000000
         Cl  0.3333333  0.6666666  0.4290000
         Cl  0.6666667  0.3333333  0.5710000
end atoms_frac

begin projections
Fe: d
end projections

begin unit_cell_cart
Ang
      3.38963099044    0.0000   0.000000
     -1.69481549522    2.93550654717   0.000000
      0.00000000000    0.0000   20.00000
end_unit_cell_cart

begin kpoint_path # along the following path
  G 0.0 0.0 0.0 M 0.0000000000    0.5000000000   0.0000000000
  M 0.0000000000    0.5000000000   0.0000000000 K -0.3333333333   0.6666666667   0.0000000000
  K -0.3333333333   0.6666666667   0.0000000000 G 0.0 0.0 0.0
end kpoint_path

mp_grid =    24    24     1

begin kpoints
  0.00000000  0.00000000  0.00000000 
  0.00000000  0.04166667  0.00000000 
  0.00000000  0.08333333  0.00000000 
  0.00000000  0.12500000  0.00000000 
  0.00000000  0.16666667  0.00000000 
  0.00000000  0.20833333  0.00000000 
  0.00000000  0.25000000  0.00000000 
  0.00000000  0.29166667  0.00000000 
  0.00000000  0.33333333  0.00000000 
  0.00000000  0.37500000  0.00000000 
  0.00000000  0.41666667  0.00000000 
  0.00000000  0.45833333  0.00000000 
  0.00000000  0.50000000  0.00000000 
  0.00000000  0.54166667  0.00000000 
  0.00000000  0.58333333  0.00000000 
  0.00000000  0.62500000  0.00000000 
  0.00000000  0.66666667  0.00000000 
  0.00000000  0.70833333  0.00000000 
  0.00000000  0.75000000  0.00000000 
  0.00000000  0.79166667  0.00000000 
  0.00000000  0.83333333  0.00000000 
  0.00000000  0.87500000  0.00000000 
  0.00000000  0.91666667  0.00000000 
  0.00000000  0.95833333  0.00000000 
  0.04166667  0.00000000  0.00000000 
  0.04166667  0.04166667  0.00000000 
  0.04166667  0.08333333  0.00000000 
  0.04166667  0.12500000  0.00000000 
  0.04166667  0.16666667  0.00000000 
  0.04166667  0.20833333  0.00000000 
  0.04166667  0.25000000  0.00000000 
  0.04166667  0.29166667  0.00000000 
  0.04166667  0.33333333  0.00000000 
  0.04166667  0.37500000  0.00000000 
  0.04166667  0.41666667  0.00000000 
  0.04166667  0.45833333  0.00000000 
  0.04166667  0.50000000  0.00000000 
  0.04166667  0.54166667  0.00000000 
  0.04166667  0.58333333  0.00000000 
  0.04166667  0.62500000  0.00000000 
  0.04166667  0.66666667  0.00000000 
  0.04166667  0.70833333  0.00000000 
  0.04166667  0.75000000  0.00000000 
  0.04166667  0.79166667  0.00000000 
  0.04166667  0.83333333  0.00000000 
  0.04166667  0.87500000  0.00000000 
  0.04166667  0.91666667  0.00000000 
  0.04166667  0.95833333  0.00000000 
  0.08333333  0.00000000  0.00000000 
  0.08333333  0.04166667  0.00000000 
  0.08333333  0.08333333  0.00000000 
  0.08333333  0.12500000  0.00000000 
  0.08333333  0.16666667  0.00000000 
  0.08333333  0.20833333  0.00000000 
  0.08333333  0.25000000  0.00000000 
  0.08333333  0.29166667  0.00000000 
  0.08333333  0.33333333  0.00000000 
  0.08333333  0.37500000  0.00000000 
  0.08333333  0.41666667  0.00000000 
  0.08333333  0.45833333  0.00000000 
  0.08333333  0.50000000  0.00000000 
  0.08333333  0.54166667  0.00000000 
  0.08333333  0.58333333  0.00000000 
  0.08333333  0.62500000  0.00000000 
  0.08333333  0.66666667  0.00000000 
  0.08333333  0.70833333  0.00000000 
  0.08333333  0.75000000  0.00000000 
  0.08333333  0.79166667  0.00000000 
  0.08333333  0.83333333  0.00000000 
  0.08333333  0.87500000  0.00000000 
  0.08333333  0.91666667  0.00000000 
  0.08333333  0.95833333  0.00000000 
  0.12500000  0.00000000  0.00000000 
  0.12500000  0.04166667  0.00000000 
  0.12500000  0.08333333  0.00000000 
  0.12500000  0.12500000  0.00000000 
  0.12500000  0.16666667  0.00000000 
  0.12500000  0.20833333  0.00000000 
  0.12500000  0.25000000  0.00000000 
  0.12500000  0.29166667  0.00000000 
  0.12500000  0.33333333  0.00000000 
  0.12500000  0.37500000  0.00000000 
  0.12500000  0.41666667  0.00000000 
  0.12500000  0.45833333  0.00000000 
  0.12500000  0.50000000  0.00000000 
  0.12500000  0.54166667  0.00000000 
  0.12500000  0.58333333  0.00000000 
  0.12500000  0.62500000  0.00000000 
  0.12500000  0.66666667  0.00000000 
  0.12500000  0.70833333  0.00000000 
  0.12500000  0.75000000  0.00000000 
  0.12500000  0.79166667  0.00000000 
  0.12500000  0.83333333  0.00000000 
  0.12500000  0.87500000  0.00000000 
  0.12500000  0.91666667  0.00000000 
  0.12500000  0.95833333  0.00000000 
  0.16666667  0.00000000  0.00000000 
  0.16666667  0.04166667  0.00000000 
  0.16666667  0.08333333  0.00000000 
  0.16666667  0.12500000  0.00000000 
  0.16666667  0.16666667  0.00000000 
  0.16666667  0.20833333  0.00000000 
  0.16666667  0.25000000  0.00000000 
  0.16666667  0.29166667  0.00000000 
  0.16666667  0.33333333  0.00000000 
  0.16666667  0.37500000  0.00000000 
  0.16666667  0.41666667  0.00000000 
  0.16666667  0.45833333  0.00000000 
  0.16666667  0.50000000  0.00000000 
  0.16666667  0.54166667  0.00000000 
  0.16666667  0.58333333  0.00000000 
  0.16666667  0.62500000  0.00000000 
  0.16666667  0.66666667  0.00000000 
  0.16666667  0.70833333  0.00000000 
  0.16666667  0.75000000  0.00000000 
  0.16666667  0.79166667  0.00000000 
  0.16666667  0.83333333  0.00000000 
  0.16666667  0.87500000  0.00000000 
  0.16666667  0.91666667  0.00000000 
  0.16666667  0.95833333  0.00000000 
  0.20833333  0.00000000  0.00000000 
  0.20833333  0.04166667  0.00000000 
  0.20833333  0.08333333  0.00000000 
  0.20833333  0.12500000  0.00000000 
  0.20833333  0.16666667  0.00000000 
  0.20833333  0.20833333  0.00000000 
  0.20833333  0.25000000  0.00000000 
  0.20833333  0.29166667  0.00000000 
  0.20833333  0.33333333  0.00000000 
  0.20833333  0.37500000  0.00000000 
  0.20833333  0.41666667  0.00000000 
  0.20833333  0.45833333  0.00000000 
  0.20833333  0.50000000  0.00000000 
  0.20833333  0.54166667  0.00000000 
  0.20833333  0.58333333  0.00000000 
  0.20833333  0.62500000  0.00000000 
  0.20833333  0.66666667  0.00000000 
  0.20833333  0.70833333  0.00000000 
  0.20833333  0.75000000  0.00000000 
  0.20833333  0.79166667  0.00000000 
  0.20833333  0.83333333  0.00000000 
  0.20833333  0.87500000  0.00000000 
  0.20833333  0.91666667  0.00000000 
  0.20833333  0.95833333  0.00000000 
  0.25000000  0.00000000  0.00000000 
  0.25000000  0.04166667  0.00000000 
  0.25000000  0.08333333  0.00000000 
  0.25000000  0.12500000  0.00000000 
  0.25000000  0.16666667  0.00000000 
  0.25000000  0.20833333  0.00000000 
  0.25000000  0.25000000  0.00000000 
  0.25000000  0.29166667  0.00000000 
  0.25000000  0.33333333  0.00000000 
  0.25000000  0.37500000  0.00000000 
  0.25000000  0.41666667  0.00000000 
  0.25000000  0.45833333  0.00000000 
  0.25000000  0.50000000  0.00000000 
  0.25000000  0.54166667  0.00000000 
  0.25000000  0.58333333  0.00000000 
  0.25000000  0.62500000  0.00000000 
  0.25000000  0.66666667  0.00000000 
  0.25000000  0.70833333  0.00000000 
  0.25000000  0.75000000  0.00000000 
  0.25000000  0.79166667  0.00000000 
  0.25000000  0.83333333  0.00000000 
  0.25000000  0.87500000  0.00000000 
  0.25000000  0.91666667  0.00000000 
  0.25000000  0.95833333  0.00000000 
  0.29166667  0.00000000  0.00000000 
  0.29166667  0.04166667  0.00000000 
  0.29166667  0.08333333  0.00000000 
  0.29166667  0.12500000  0.00000000 
  0.29166667  0.16666667  0.00000000 
  0.29166667  0.20833333  0.00000000 
  0.29166667  0.25000000  0.00000000 
  0.29166667  0.29166667  0.00000000 
  0.29166667  0.33333333  0.00000000 
  0.29166667  0.37500000  0.00000000 
  0.29166667  0.41666667  0.00000000 
  0.29166667  0.45833333  0.00000000 
  0.29166667  0.50000000  0.00000000 
  0.29166667  0.54166667  0.00000000 
  0.29166667  0.58333333  0.00000000 
  0.29166667  0.62500000  0.00000000 
  0.29166667  0.66666667  0.00000000 
  0.29166667  0.70833333  0.00000000 
  0.29166667  0.75000000  0.00000000 
  0.29166667  0.79166667  0.00000000 
  0.29166667  0.83333333  0.00000000 
  0.29166667  0.87500000  0.00000000 
  0.29166667  0.91666667  0.00000000 
  0.29166667  0.95833333  0.00000000 
  0.33333333  0.00000000  0.00000000 
  0.33333333  0.04166667  0.00000000 
  0.33333333  0.08333333  0.00000000 
  0.33333333  0.12500000  0.00000000 
  0.33333333  0.16666667  0.00000000 
  0.33333333  0.20833333  0.00000000 
  0.33333333  0.25000000  0.00000000 
  0.33333333  0.29166667  0.00000000 
  0.33333333  0.33333333  0.00000000 
  0.33333333  0.37500000  0.00000000 
  0.33333333  0.41666667  0.00000000 
  0.33333333  0.45833333  0.00000000 
  0.33333333  0.50000000  0.00000000 
  0.33333333  0.54166667  0.00000000 
  0.33333333  0.58333333  0.00000000 
  0.33333333  0.62500000  0.00000000 
  0.33333333  0.66666667  0.00000000 
  0.33333333  0.70833333  0.00000000 
  0.33333333  0.75000000  0.00000000 
  0.33333333  0.79166667  0.00000000 
  0.33333333  0.83333333  0.00000000 
  0.33333333  0.87500000  0.00000000 
  0.33333333  0.91666667  0.00000000 
  0.33333333  0.95833333  0.00000000 
  0.37500000  0.00000000  0.00000000 
  0.37500000  0.04166667  0.00000000 
  0.37500000  0.08333333  0.00000000 
  0.37500000  0.12500000  0.00000000 
  0.37500000  0.16666667  0.00000000 
  0.37500000  0.20833333  0.00000000 
  0.37500000  0.25000000  0.00000000 
  0.37500000  0.29166667  0.00000000 
  0.37500000  0.33333333  0.00000000 
  0.37500000  0.37500000  0.00000000 
  0.37500000  0.41666667  0.00000000 
  0.37500000  0.45833333  0.00000000 
  0.37500000  0.50000000  0.00000000 
  0.37500000  0.54166667  0.00000000 
  0.37500000  0.58333333  0.00000000 
  0.37500000  0.62500000  0.00000000 
  0.37500000  0.66666667  0.00000000 
  0.37500000  0.70833333  0.00000000 
  0.37500000  0.75000000  0.00000000 
  0.37500000  0.79166667  0.00000000 
  0.37500000  0.83333333  0.00000000 
  0.37500000  0.87500000  0.00000000 
  0.37500000  0.91666667  0.00000000 
  0.37500000  0.95833333  0.00000000 
  0.41666667  0.00000000  0.00000000 
  0.41666667  0.04166667  0.00000000 
  0.41666667  0.08333333  0.00000000 
  0.41666667  0.12500000  0.00000000 
  0.41666667  0.16666667  0.00000000 
  0.41666667  0.20833333  0.00000000 
  0.41666667  0.25000000  0.00000000 
  0.41666667  0.29166667  0.00000000 
  0.41666667  0.33333333  0.00000000 
  0.41666667  0.37500000  0.00000000 
  0.41666667  0.41666667  0.00000000 
  0.41666667  0.45833333  0.00000000 
  0.41666667  0.50000000  0.00000000 
  0.41666667  0.54166667  0.00000000 
  0.41666667  0.58333333  0.00000000 
  0.41666667  0.62500000  0.00000000 
  0.41666667  0.66666667  0.00000000 
  0.41666667  0.70833333  0.00000000 
  0.41666667  0.75000000  0.00000000 
  0.41666667  0.79166667  0.00000000 
  0.41666667  0.83333333  0.00000000 
  0.41666667  0.87500000  0.00000000 
  0.41666667  0.91666667  0.00000000 
  0.41666667  0.95833333  0.00000000 
  0.45833333  0.00000000  0.00000000 
  0.45833333  0.04166667  0.00000000 
  0.45833333  0.08333333  0.00000000 
  0.45833333  0.12500000  0.00000000 
  0.45833333  0.16666667  0.00000000 
  0.45833333  0.20833333  0.00000000 
  0.45833333  0.25000000  0.00000000 
  0.45833333  0.29166667  0.00000000 
  0.45833333  0.33333333  0.00000000 
  0.45833333  0.37500000  0.00000000 
  0.45833333  0.41666667  0.00000000 
  0.45833333  0.45833333  0.00000000 
  0.45833333  0.50000000  0.00000000 
  0.45833333  0.54166667  0.00000000 
  0.45833333  0.58333333  0.00000000 
  0.45833333  0.62500000  0.00000000 
  0.45833333  0.66666667  0.00000000 
  0.45833333  0.70833333  0.00000000 
  0.45833333  0.75000000  0.00000000 
  0.45833333  0.79166667  0.00000000 
  0.45833333  0.83333333  0.00000000 
  0.45833333  0.87500000  0.00000000 
  0.45833333  0.91666667  0.00000000 
  0.45833333  0.95833333  0.00000000 
  0.50000000  0.00000000  0.00000000 
  0.50000000  0.04166667  0.00000000 
  0.50000000  0.08333333  0.00000000 
  0.50000000  0.12500000  0.00000000 
  0.50000000  0.16666667  0.00000000 
  0.50000000  0.20833333  0.00000000 
  0.50000000  0.25000000  0.00000000 
  0.50000000  0.29166667  0.00000000 
  0.50000000  0.33333333  0.00000000 
  0.50000000  0.37500000  0.00000000 
  0.50000000  0.41666667  0.00000000 
  0.50000000  0.45833333  0.00000000 
  0.50000000  0.50000000  0.00000000 
  0.50000000  0.54166667  0.00000000 
  0.50000000  0.58333333  0.00000000 
  0.50000000  0.62500000  0.00000000 
  0.50000000  0.66666667  0.00000000 
  0.50000000  0.70833333  0.00000000 
  0.50000000  0.75000000  0.00000000 
  0.50000000  0.79166667  0.00000000 
  0.50000000  0.83333333  0.00000000 
  0.50000000  0.87500000  0.00000000 
  0.50000000  0.91666667  0.00000000 
  0.50000000  0.95833333  0.00000000 
  0.54166667  0.00000000  0.00000000 
  0.54166667  0.04166667  0.00000000 
  0.54166667  0.08333333  0.00000000 
  0.54166667  0.12500000  0.00000000 
  0.54166667  0.16666667  0.00000000 
  0.54166667  0.20833333  0.00000000 
  0.54166667  0.25000000  0.00000000 
  0.54166667  0.29166667  0.00000000 
  0.54166667  0.33333333  0.00000000 
  0.54166667  0.37500000  0.00000000 
  0.54166667  0.41666667  0.00000000 
  0.54166667  0.45833333  0.00000000 
  0.54166667  0.50000000  0.00000000 
  0.54166667  0.54166667  0.00000000 
  0.54166667  0.58333333  0.00000000 
  0.54166667  0.62500000  0.00000000 
  0.54166667  0.66666667  0.00000000 
  0.54166667  0.70833333  0.00000000 
  0.54166667  0.75000000  0.00000000 
  0.54166667  0.79166667  0.00000000 
  0.54166667  0.83333333  0.00000000 
  0.54166667  0.87500000  0.00000000 
  0.54166667  0.91666667  0.00000000 
  0.54166667  0.95833333  0.00000000 
  0.58333333  0.00000000  0.00000000 
  0.58333333  0.04166667  0.00000000 
  0.58333333  0.08333333  0.00000000 
  0.58333333  0.12500000  0.00000000 
  0.58333333  0.16666667  0.00000000 
  0.58333333  0.20833333  0.00000000 
  0.58333333  0.25000000  0.00000000 
  0.58333333  0.29166667  0.00000000 
  0.58333333  0.33333333  0.00000000 
  0.58333333  0.37500000  0.00000000 
  0.58333333  0.41666667  0.00000000 
  0.58333333  0.45833333  0.00000000 
  0.58333333  0.50000000  0.00000000 
  0.58333333  0.54166667  0.00000000 
  0.58333333  0.58333333  0.00000000 
  0.58333333  0.62500000  0.00000000 
  0.58333333  0.66666667  0.00000000 
  0.58333333  0.70833333  0.00000000 
  0.58333333  0.75000000  0.00000000 
  0.58333333  0.79166667  0.00000000 
  0.58333333  0.83333333  0.00000000 
  0.58333333  0.87500000  0.00000000 
  0.58333333  0.91666667  0.00000000 
  0.58333333  0.95833333  0.00000000 
  0.62500000  0.00000000  0.00000000 
  0.62500000  0.04166667  0.00000000 
  0.62500000  0.08333333  0.00000000 
  0.62500000  0.12500000  0.00000000 
  0.62500000  0.16666667  0.00000000 
  0.62500000  0.20833333  0.00000000 
  0.62500000  0.25000000  0.00000000 
  0.62500000  0.29166667  0.00000000 
  0.62500000  0.33333333  0.00000000 
  0.62500000  0.37500000  0.00000000 
  0.62500000  0.41666667  0.00000000 
  0.62500000  0.45833333  0.00000000 
  0.62500000  0.50000000  0.00000000 
  0.62500000  0.54166667  0.00000000 
  0.62500000  0.58333333  0.00000000 
  0.62500000  0.62500000  0.00000000 
  0.62500000  0.66666667  0.00000000 
  0.62500000  0.70833333  0.00000000 
  0.62500000  0.75000000  0.00000000 
  0.62500000  0.79166667  0.00000000 
  0.62500000  0.83333333  0.00000000 
  0.62500000  0.87500000  0.00000000 
  0.62500000  0.91666667  0.00000000 
  0.62500000  0.95833333  0.00000000 
  0.66666667  0.00000000  0.00000000 
  0.66666667  0.04166667  0.00000000 
  0.66666667  0.08333333  0.00000000 
  0.66666667  0.12500000  0.00000000 
  0.66666667  0.16666667  0.00000000 
  0.66666667  0.20833333  0.00000000 
  0.66666667  0.25000000  0.00000000 
  0.66666667  0.29166667  0.00000000 
  0.66666667  0.33333333  0.00000000 
  0.66666667  0.37500000  0.00000000 
  0.66666667  0.41666667  0.00000000 
  0.66666667  0.45833333  0.00000000 
  0.66666667  0.50000000  0.00000000 
  0.66666667  0.54166667  0.00000000 
  0.66666667  0.58333333  0.00000000 
  0.66666667  0.62500000  0.00000000 
  0.66666667  0.66666667  0.00000000 
  0.66666667  0.70833333  0.00000000 
  0.66666667  0.75000000  0.00000000 
  0.66666667  0.79166667  0.00000000 
  0.66666667  0.83333333  0.00000000 
  0.66666667  0.87500000  0.00000000 
  0.66666667  0.91666667  0.00000000 
  0.66666667  0.95833333  0.00000000 
  0.70833333  0.00000000  0.00000000 
  0.70833333  0.04166667  0.00000000 
  0.70833333  0.08333333  0.00000000 
  0.70833333  0.12500000  0.00000000 
  0.70833333  0.16666667  0.00000000 
  0.70833333  0.20833333  0.00000000 
  0.70833333  0.25000000  0.00000000 
  0.70833333  0.29166667  0.00000000 
  0.70833333  0.33333333  0.00000000 
  0.70833333  0.37500000  0.00000000 
  0.70833333  0.41666667  0.00000000 
  0.70833333  0.45833333  0.00000000 
  0.70833333  0.50000000  0.00000000 
  0.70833333  0.54166667  0.00000000 
  0.70833333  0.58333333  0.00000000 
  0.70833333  0.62500000  0.00000000 
  0.70833333  0.66666667  0.00000000 
  0.70833333  0.70833333  0.00000000 
  0.70833333  0.75000000  0.00000000 
  0.70833333  0.79166667  0.00000000 
  0.70833333  0.83333333  0.00000000 
  0.70833333  0.87500000  0.00000000 
  0.70833333  0.91666667  0.00000000 
  0.70833333  0.95833333  0.00000000 
  0.75000000  0.00000000  0.00000000 
  0.75000000  0.04166667  0.00000000 
  0.75000000  0.08333333  0.00000000 
  0.75000000  0.12500000  0.00000000 
  0.75000000  0.16666667  0.00000000 
  0.75000000  0.20833333  0.00000000 
  0.75000000  0.25000000  0.00000000 
  0.75000000  0.29166667  0.00000000 
  0.75000000  0.33333333  0.00000000 
  0.75000000  0.37500000  0.00000000 
  0.75000000  0.41666667  0.00000000 
  0.75000000  0.45833333  0.00000000 
  0.75000000  0.50000000  0.00000000 
  0.75000000  0.54166667  0.00000000 
  0.75000000  0.58333333  0.00000000 
  0.75000000  0.62500000  0.00000000 
  0.75000000  0.66666667  0.00000000 
  0.75000000  0.70833333  0.00000000 
  0.75000000  0.75000000  0.00000000 
  0.75000000  0.79166667  0.00000000 
  0.75000000  0.83333333  0.00000000 
  0.75000000  0.87500000  0.00000000 
  0.75000000  0.91666667  0.00000000 
  0.75000000  0.95833333  0.00000000 
  0.79166667  0.00000000  0.00000000 
  0.79166667  0.04166667  0.00000000 
  0.79166667  0.08333333  0.00000000 
  0.79166667  0.12500000  0.00000000 
  0.79166667  0.16666667  0.00000000 
  0.79166667  0.20833333  0.00000000 
  0.79166667  0.25000000  0.00000000 
  0.79166667  0.29166667  0.00000000 
  0.79166667  0.33333333  0.00000000 
  0.79166667  0.37500000  0.00000000 
  0.79166667  0.41666667  0.00000000 
  0.79166667  0.45833333  0.00000000 
  0.79166667  0.50000000  0.00000000 
  0.79166667  0.54166667  0.00000000 
  0.79166667  0.58333333  0.00000000 
  0.79166667  0.62500000  0.00000000 
  0.79166667  0.66666667  0.00000000 
  0.79166667  0.70833333  0.00000000 
  0.79166667  0.75000000  0.00000000 
  0.79166667  0.79166667  0.00000000 
  0.79166667  0.83333333  0.00000000 
  0.79166667  0.87500000  0.00000000 
  0.79166667  0.91666667  0.00000000 
  0.79166667  0.95833333  0.00000000 
  0.83333333  0.00000000  0.00000000 
  0.83333333  0.04166667  0.00000000 
  0.83333333  0.08333333  0.00000000 
  0.83333333  0.12500000  0.00000000 
  0.83333333  0.16666667  0.00000000 
  0.83333333  0.20833333  0.00000000 
  0.83333333  0.25000000  0.00000000 
  0.83333333  0.29166667  0.00000000 
  0.83333333  0.33333333  0.00000000 
  0.83333333  0.37500000  0.00000000 
  0.83333333  0.41666667  0.00000000 
  0.83333333  0.45833333  0.00000000 
  0.83333333  0.50000000  0.00000000 
  0.83333333  0.54166667  0.00000000 
  0.83333333  0.58333333  0.00000000 
  0.83333333  0.62500000  0.00000000 
  0.83333333  0.66666667  0.00000000 
  0.83333333  0.70833333  0.00000000 
  0.83333333  0.75000000  0.00000000 
  0.83333333  0.79166667  0.00000000 
  0.83333333  0.83333333  0.00000000 
  0.83333333  0.87500000  0.00000000 
  0.83333333  0.91666667  0.00000000 
  0.83333333  0.95833333  0.00000000 
  0.87500000  0.00000000  0.00000000 
  0.87500000  0.04166667  0.00000000 
  0.87500000  0.08333333  0.00000000 
  0.87500000  0.12500000  0.00000000 
  0.87500000  0.16666667  0.00000000 
  0.87500000  0.20833333  0.00000000 
  0.87500000  0.25000000  0.00000000 
  0.87500000  0.29166667  0.00000000 
  0.87500000  0.33333333  0.00000000 
  0.87500000  0.37500000  0.00000000 
  0.87500000  0.41666667  0.00000000 
  0.87500000  0.45833333  0.00000000 
  0.87500000  0.50000000  0.00000000 
  0.87500000  0.54166667  0.00000000 
  0.87500000  0.58333333  0.00000000 
  0.87500000  0.62500000  0.00000000 
  0.87500000  0.66666667  0.00000000 
  0.87500000  0.70833333  0.00000000 
  0.87500000  0.75000000  0.00000000 
  0.87500000  0.79166667  0.00000000 
  0.87500000  0.83333333  0.00000000 
  0.87500000  0.87500000  0.00000000 
  0.87500000  0.91666667  0.00000000 
  0.87500000  0.95833333  0.00000000 
  0.91666667  0.00000000  0.00000000 
  0.91666667  0.04166667  0.00000000 
  0.91666667  0.08333333  0.00000000 
  0.91666667  0.12500000  0.00000000 
  0.91666667  0.16666667  0.00000000 
  0.91666667  0.20833333  0.00000000 
  0.91666667  0.25000000  0.00000000 
  0.91666667  0.29166667  0.00000000 
  0.91666667  0.33333333  0.00000000 
  0.91666667  0.37500000  0.00000000 
  0.91666667  0.41666667  0.00000000 
  0.91666667  0.45833333  0.00000000 
  0.91666667  0.50000000  0.00000000 
  0.91666667  0.54166667  0.00000000 
  0.91666667  0.58333333  0.00000000 
  0.91666667  0.62500000  0.00000000 
  0.91666667  0.66666667  0.00000000 
  0.91666667  0.70833333  0.00000000 
  0.91666667  0.75000000  0.00000000 
  0.91666667  0.79166667  0.00000000 
  0.91666667  0.83333333  0.00000000 
  0.91666667  0.87500000  0.00000000 
  0.91666667  0.91666667  0.00000000 
  0.91666667  0.95833333  0.00000000 
  0.95833333  0.00000000  0.00000000 
  0.95833333  0.04166667  0.00000000 
  0.95833333  0.08333333  0.00000000 
  0.95833333  0.12500000  0.00000000 
  0.95833333  0.16666667  0.00000000 
  0.95833333  0.20833333  0.00000000 
  0.95833333  0.25000000  0.00000000 
  0.95833333  0.29166667  0.00000000 
  0.95833333  0.33333333  0.00000000 
  0.95833333  0.37500000  0.00000000 
  0.95833333  0.41666667  0.00000000 
  0.95833333  0.45833333  0.00000000 
  0.95833333  0.50000000  0.00000000 
  0.95833333  0.54166667  0.00000000 
  0.95833333  0.58333333  0.00000000 
  0.95833333  0.62500000  0.00000000 
  0.95833333  0.66666667  0.00000000 
  0.95833333  0.70833333  0.00000000 
  0.95833333  0.75000000  0.00000000 
  0.95833333  0.79166667  0.00000000 
  0.95833333  0.83333333  0.00000000 
  0.95833333  0.87500000  0.00000000 
  0.95833333  0.91666667  0.00000000 
  0.95833333  0.95833333  0.00000000 
end kpoints
