 &control
    calculation='nscf'
    restart_mode='from_scratch',
    pseudo_dir = './',
    outdir='./'
    prefix='FeCl2'
	 verbosity='high'
 /
&system
    ibrav = 4, nat= 3, ntyp= 2,
	 A=3.47, C=20
    ecutwfc =80.0, nspin = 1, nbnd= 28, ecutrho=800.0
    occupations='smearing', smearing='cold', degauss=0.01
 /
 &electrons
    conv_thr = 1.0e-8
 /
ATOMIC_SPECIES
 Fe 55.847 Fe.pbe-spn-kjpaw_psl.1.0.0.UPF
 Cl 35.4527 Cl.pbe-n-kjpaw_psl.1.0.0.UPF
ATOMIC_POSITIONS crystal
 Fe   0.0000000     0.0000000     0.5000000
 Cl   0.3333333     0.6666666     0.4290000
 Cl   0.6666667     0.3333333     0.5710000
K_POINTS crystal
576
  0.00000000  0.00000000  0.00000000  1.736111e-03 
  0.00000000  0.04166667  0.00000000  1.736111e-03 
  0.00000000  0.08333333  0.00000000  1.736111e-03 
  0.00000000  0.12500000  0.00000000  1.736111e-03 
  0.00000000  0.16666667  0.00000000  1.736111e-03 
  0.00000000  0.20833333  0.00000000  1.736111e-03 
  0.00000000  0.25000000  0.00000000  1.736111e-03 
  0.00000000  0.29166667  0.00000000  1.736111e-03 
  0.00000000  0.33333333  0.00000000  1.736111e-03 
  0.00000000  0.37500000  0.00000000  1.736111e-03 
  0.00000000  0.41666667  0.00000000  1.736111e-03 
  0.00000000  0.45833333  0.00000000  1.736111e-03 
  0.00000000  0.50000000  0.00000000  1.736111e-03 
  0.00000000  0.54166667  0.00000000  1.736111e-03 
  0.00000000  0.58333333  0.00000000  1.736111e-03 
  0.00000000  0.62500000  0.00000000  1.736111e-03 
  0.00000000  0.66666667  0.00000000  1.736111e-03 
  0.00000000  0.70833333  0.00000000  1.736111e-03 
  0.00000000  0.75000000  0.00000000  1.736111e-03 
  0.00000000  0.79166667  0.00000000  1.736111e-03 
  0.00000000  0.83333333  0.00000000  1.736111e-03 
  0.00000000  0.87500000  0.00000000  1.736111e-03 
  0.00000000  0.91666667  0.00000000  1.736111e-03 
  0.00000000  0.95833333  0.00000000  1.736111e-03 
  0.04166667  0.00000000  0.00000000  1.736111e-03 
  0.04166667  0.04166667  0.00000000  1.736111e-03 
  0.04166667  0.08333333  0.00000000  1.736111e-03 
  0.04166667  0.12500000  0.00000000  1.736111e-03 
  0.04166667  0.16666667  0.00000000  1.736111e-03 
  0.04166667  0.20833333  0.00000000  1.736111e-03 
  0.04166667  0.25000000  0.00000000  1.736111e-03 
  0.04166667  0.29166667  0.00000000  1.736111e-03 
  0.04166667  0.33333333  0.00000000  1.736111e-03 
  0.04166667  0.37500000  0.00000000  1.736111e-03 
  0.04166667  0.41666667  0.00000000  1.736111e-03 
  0.04166667  0.45833333  0.00000000  1.736111e-03 
  0.04166667  0.50000000  0.00000000  1.736111e-03 
  0.04166667  0.54166667  0.00000000  1.736111e-03 
  0.04166667  0.58333333  0.00000000  1.736111e-03 
  0.04166667  0.62500000  0.00000000  1.736111e-03 
  0.04166667  0.66666667  0.00000000  1.736111e-03 
  0.04166667  0.70833333  0.00000000  1.736111e-03 
  0.04166667  0.75000000  0.00000000  1.736111e-03 
  0.04166667  0.79166667  0.00000000  1.736111e-03 
  0.04166667  0.83333333  0.00000000  1.736111e-03 
  0.04166667  0.87500000  0.00000000  1.736111e-03 
  0.04166667  0.91666667  0.00000000  1.736111e-03 
  0.04166667  0.95833333  0.00000000  1.736111e-03 
  0.08333333  0.00000000  0.00000000  1.736111e-03 
  0.08333333  0.04166667  0.00000000  1.736111e-03 
  0.08333333  0.08333333  0.00000000  1.736111e-03 
  0.08333333  0.12500000  0.00000000  1.736111e-03 
  0.08333333  0.16666667  0.00000000  1.736111e-03 
  0.08333333  0.20833333  0.00000000  1.736111e-03 
  0.08333333  0.25000000  0.00000000  1.736111e-03 
  0.08333333  0.29166667  0.00000000  1.736111e-03 
  0.08333333  0.33333333  0.00000000  1.736111e-03 
  0.08333333  0.37500000  0.00000000  1.736111e-03 
  0.08333333  0.41666667  0.00000000  1.736111e-03 
  0.08333333  0.45833333  0.00000000  1.736111e-03 
  0.08333333  0.50000000  0.00000000  1.736111e-03 
  0.08333333  0.54166667  0.00000000  1.736111e-03 
  0.08333333  0.58333333  0.00000000  1.736111e-03 
  0.08333333  0.62500000  0.00000000  1.736111e-03 
  0.08333333  0.66666667  0.00000000  1.736111e-03 
  0.08333333  0.70833333  0.00000000  1.736111e-03 
  0.08333333  0.75000000  0.00000000  1.736111e-03 
  0.08333333  0.79166667  0.00000000  1.736111e-03 
  0.08333333  0.83333333  0.00000000  1.736111e-03 
  0.08333333  0.87500000  0.00000000  1.736111e-03 
  0.08333333  0.91666667  0.00000000  1.736111e-03 
  0.08333333  0.95833333  0.00000000  1.736111e-03 
  0.12500000  0.00000000  0.00000000  1.736111e-03 
  0.12500000  0.04166667  0.00000000  1.736111e-03 
  0.12500000  0.08333333  0.00000000  1.736111e-03 
  0.12500000  0.12500000  0.00000000  1.736111e-03 
  0.12500000  0.16666667  0.00000000  1.736111e-03 
  0.12500000  0.20833333  0.00000000  1.736111e-03 
  0.12500000  0.25000000  0.00000000  1.736111e-03 
  0.12500000  0.29166667  0.00000000  1.736111e-03 
  0.12500000  0.33333333  0.00000000  1.736111e-03 
  0.12500000  0.37500000  0.00000000  1.736111e-03 
  0.12500000  0.41666667  0.00000000  1.736111e-03 
  0.12500000  0.45833333  0.00000000  1.736111e-03 
  0.12500000  0.50000000  0.00000000  1.736111e-03 
  0.12500000  0.54166667  0.00000000  1.736111e-03 
  0.12500000  0.58333333  0.00000000  1.736111e-03 
  0.12500000  0.62500000  0.00000000  1.736111e-03 
  0.12500000  0.66666667  0.00000000  1.736111e-03 
  0.12500000  0.70833333  0.00000000  1.736111e-03 
  0.12500000  0.75000000  0.00000000  1.736111e-03 
  0.12500000  0.79166667  0.00000000  1.736111e-03 
  0.12500000  0.83333333  0.00000000  1.736111e-03 
  0.12500000  0.87500000  0.00000000  1.736111e-03 
  0.12500000  0.91666667  0.00000000  1.736111e-03 
  0.12500000  0.95833333  0.00000000  1.736111e-03 
  0.16666667  0.00000000  0.00000000  1.736111e-03 
  0.16666667  0.04166667  0.00000000  1.736111e-03 
  0.16666667  0.08333333  0.00000000  1.736111e-03 
  0.16666667  0.12500000  0.00000000  1.736111e-03 
  0.16666667  0.16666667  0.00000000  1.736111e-03 
  0.16666667  0.20833333  0.00000000  1.736111e-03 
  0.16666667  0.25000000  0.00000000  1.736111e-03 
  0.16666667  0.29166667  0.00000000  1.736111e-03 
  0.16666667  0.33333333  0.00000000  1.736111e-03 
  0.16666667  0.37500000  0.00000000  1.736111e-03 
  0.16666667  0.41666667  0.00000000  1.736111e-03 
  0.16666667  0.45833333  0.00000000  1.736111e-03 
  0.16666667  0.50000000  0.00000000  1.736111e-03 
  0.16666667  0.54166667  0.00000000  1.736111e-03 
  0.16666667  0.58333333  0.00000000  1.736111e-03 
  0.16666667  0.62500000  0.00000000  1.736111e-03 
  0.16666667  0.66666667  0.00000000  1.736111e-03 
  0.16666667  0.70833333  0.00000000  1.736111e-03 
  0.16666667  0.75000000  0.00000000  1.736111e-03 
  0.16666667  0.79166667  0.00000000  1.736111e-03 
  0.16666667  0.83333333  0.00000000  1.736111e-03 
  0.16666667  0.87500000  0.00000000  1.736111e-03 
  0.16666667  0.91666667  0.00000000  1.736111e-03 
  0.16666667  0.95833333  0.00000000  1.736111e-03 
  0.20833333  0.00000000  0.00000000  1.736111e-03 
  0.20833333  0.04166667  0.00000000  1.736111e-03 
  0.20833333  0.08333333  0.00000000  1.736111e-03 
  0.20833333  0.12500000  0.00000000  1.736111e-03 
  0.20833333  0.16666667  0.00000000  1.736111e-03 
  0.20833333  0.20833333  0.00000000  1.736111e-03 
  0.20833333  0.25000000  0.00000000  1.736111e-03 
  0.20833333  0.29166667  0.00000000  1.736111e-03 
  0.20833333  0.33333333  0.00000000  1.736111e-03 
  0.20833333  0.37500000  0.00000000  1.736111e-03 
  0.20833333  0.41666667  0.00000000  1.736111e-03 
  0.20833333  0.45833333  0.00000000  1.736111e-03 
  0.20833333  0.50000000  0.00000000  1.736111e-03 
  0.20833333  0.54166667  0.00000000  1.736111e-03 
  0.20833333  0.58333333  0.00000000  1.736111e-03 
  0.20833333  0.62500000  0.00000000  1.736111e-03 
  0.20833333  0.66666667  0.00000000  1.736111e-03 
  0.20833333  0.70833333  0.00000000  1.736111e-03 
  0.20833333  0.75000000  0.00000000  1.736111e-03 
  0.20833333  0.79166667  0.00000000  1.736111e-03 
  0.20833333  0.83333333  0.00000000  1.736111e-03 
  0.20833333  0.87500000  0.00000000  1.736111e-03 
  0.20833333  0.91666667  0.00000000  1.736111e-03 
  0.20833333  0.95833333  0.00000000  1.736111e-03 
  0.25000000  0.00000000  0.00000000  1.736111e-03 
  0.25000000  0.04166667  0.00000000  1.736111e-03 
  0.25000000  0.08333333  0.00000000  1.736111e-03 
  0.25000000  0.12500000  0.00000000  1.736111e-03 
  0.25000000  0.16666667  0.00000000  1.736111e-03 
  0.25000000  0.20833333  0.00000000  1.736111e-03 
  0.25000000  0.25000000  0.00000000  1.736111e-03 
  0.25000000  0.29166667  0.00000000  1.736111e-03 
  0.25000000  0.33333333  0.00000000  1.736111e-03 
  0.25000000  0.37500000  0.00000000  1.736111e-03 
  0.25000000  0.41666667  0.00000000  1.736111e-03 
  0.25000000  0.45833333  0.00000000  1.736111e-03 
  0.25000000  0.50000000  0.00000000  1.736111e-03 
  0.25000000  0.54166667  0.00000000  1.736111e-03 
  0.25000000  0.58333333  0.00000000  1.736111e-03 
  0.25000000  0.62500000  0.00000000  1.736111e-03 
  0.25000000  0.66666667  0.00000000  1.736111e-03 
  0.25000000  0.70833333  0.00000000  1.736111e-03 
  0.25000000  0.75000000  0.00000000  1.736111e-03 
  0.25000000  0.79166667  0.00000000  1.736111e-03 
  0.25000000  0.83333333  0.00000000  1.736111e-03 
  0.25000000  0.87500000  0.00000000  1.736111e-03 
  0.25000000  0.91666667  0.00000000  1.736111e-03 
  0.25000000  0.95833333  0.00000000  1.736111e-03 
  0.29166667  0.00000000  0.00000000  1.736111e-03 
  0.29166667  0.04166667  0.00000000  1.736111e-03 
  0.29166667  0.08333333  0.00000000  1.736111e-03 
  0.29166667  0.12500000  0.00000000  1.736111e-03 
  0.29166667  0.16666667  0.00000000  1.736111e-03 
  0.29166667  0.20833333  0.00000000  1.736111e-03 
  0.29166667  0.25000000  0.00000000  1.736111e-03 
  0.29166667  0.29166667  0.00000000  1.736111e-03 
  0.29166667  0.33333333  0.00000000  1.736111e-03 
  0.29166667  0.37500000  0.00000000  1.736111e-03 
  0.29166667  0.41666667  0.00000000  1.736111e-03 
  0.29166667  0.45833333  0.00000000  1.736111e-03 
  0.29166667  0.50000000  0.00000000  1.736111e-03 
  0.29166667  0.54166667  0.00000000  1.736111e-03 
  0.29166667  0.58333333  0.00000000  1.736111e-03 
  0.29166667  0.62500000  0.00000000  1.736111e-03 
  0.29166667  0.66666667  0.00000000  1.736111e-03 
  0.29166667  0.70833333  0.00000000  1.736111e-03 
  0.29166667  0.75000000  0.00000000  1.736111e-03 
  0.29166667  0.79166667  0.00000000  1.736111e-03 
  0.29166667  0.83333333  0.00000000  1.736111e-03 
  0.29166667  0.87500000  0.00000000  1.736111e-03 
  0.29166667  0.91666667  0.00000000  1.736111e-03 
  0.29166667  0.95833333  0.00000000  1.736111e-03 
  0.33333333  0.00000000  0.00000000  1.736111e-03 
  0.33333333  0.04166667  0.00000000  1.736111e-03 
  0.33333333  0.08333333  0.00000000  1.736111e-03 
  0.33333333  0.12500000  0.00000000  1.736111e-03 
  0.33333333  0.16666667  0.00000000  1.736111e-03 
  0.33333333  0.20833333  0.00000000  1.736111e-03 
  0.33333333  0.25000000  0.00000000  1.736111e-03 
  0.33333333  0.29166667  0.00000000  1.736111e-03 
  0.33333333  0.33333333  0.00000000  1.736111e-03 
  0.33333333  0.37500000  0.00000000  1.736111e-03 
  0.33333333  0.41666667  0.00000000  1.736111e-03 
  0.33333333  0.45833333  0.00000000  1.736111e-03 
  0.33333333  0.50000000  0.00000000  1.736111e-03 
  0.33333333  0.54166667  0.00000000  1.736111e-03 
  0.33333333  0.58333333  0.00000000  1.736111e-03 
  0.33333333  0.62500000  0.00000000  1.736111e-03 
  0.33333333  0.66666667  0.00000000  1.736111e-03 
  0.33333333  0.70833333  0.00000000  1.736111e-03 
  0.33333333  0.75000000  0.00000000  1.736111e-03 
  0.33333333  0.79166667  0.00000000  1.736111e-03 
  0.33333333  0.83333333  0.00000000  1.736111e-03 
  0.33333333  0.87500000  0.00000000  1.736111e-03 
  0.33333333  0.91666667  0.00000000  1.736111e-03 
  0.33333333  0.95833333  0.00000000  1.736111e-03 
  0.37500000  0.00000000  0.00000000  1.736111e-03 
  0.37500000  0.04166667  0.00000000  1.736111e-03 
  0.37500000  0.08333333  0.00000000  1.736111e-03 
  0.37500000  0.12500000  0.00000000  1.736111e-03 
  0.37500000  0.16666667  0.00000000  1.736111e-03 
  0.37500000  0.20833333  0.00000000  1.736111e-03 
  0.37500000  0.25000000  0.00000000  1.736111e-03 
  0.37500000  0.29166667  0.00000000  1.736111e-03 
  0.37500000  0.33333333  0.00000000  1.736111e-03 
  0.37500000  0.37500000  0.00000000  1.736111e-03 
  0.37500000  0.41666667  0.00000000  1.736111e-03 
  0.37500000  0.45833333  0.00000000  1.736111e-03 
  0.37500000  0.50000000  0.00000000  1.736111e-03 
  0.37500000  0.54166667  0.00000000  1.736111e-03 
  0.37500000  0.58333333  0.00000000  1.736111e-03 
  0.37500000  0.62500000  0.00000000  1.736111e-03 
  0.37500000  0.66666667  0.00000000  1.736111e-03 
  0.37500000  0.70833333  0.00000000  1.736111e-03 
  0.37500000  0.75000000  0.00000000  1.736111e-03 
  0.37500000  0.79166667  0.00000000  1.736111e-03 
  0.37500000  0.83333333  0.00000000  1.736111e-03 
  0.37500000  0.87500000  0.00000000  1.736111e-03 
  0.37500000  0.91666667  0.00000000  1.736111e-03 
  0.37500000  0.95833333  0.00000000  1.736111e-03 
  0.41666667  0.00000000  0.00000000  1.736111e-03 
  0.41666667  0.04166667  0.00000000  1.736111e-03 
  0.41666667  0.08333333  0.00000000  1.736111e-03 
  0.41666667  0.12500000  0.00000000  1.736111e-03 
  0.41666667  0.16666667  0.00000000  1.736111e-03 
  0.41666667  0.20833333  0.00000000  1.736111e-03 
  0.41666667  0.25000000  0.00000000  1.736111e-03 
  0.41666667  0.29166667  0.00000000  1.736111e-03 
  0.41666667  0.33333333  0.00000000  1.736111e-03 
  0.41666667  0.37500000  0.00000000  1.736111e-03 
  0.41666667  0.41666667  0.00000000  1.736111e-03 
  0.41666667  0.45833333  0.00000000  1.736111e-03 
  0.41666667  0.50000000  0.00000000  1.736111e-03 
  0.41666667  0.54166667  0.00000000  1.736111e-03 
  0.41666667  0.58333333  0.00000000  1.736111e-03 
  0.41666667  0.62500000  0.00000000  1.736111e-03 
  0.41666667  0.66666667  0.00000000  1.736111e-03 
  0.41666667  0.70833333  0.00000000  1.736111e-03 
  0.41666667  0.75000000  0.00000000  1.736111e-03 
  0.41666667  0.79166667  0.00000000  1.736111e-03 
  0.41666667  0.83333333  0.00000000  1.736111e-03 
  0.41666667  0.87500000  0.00000000  1.736111e-03 
  0.41666667  0.91666667  0.00000000  1.736111e-03 
  0.41666667  0.95833333  0.00000000  1.736111e-03 
  0.45833333  0.00000000  0.00000000  1.736111e-03 
  0.45833333  0.04166667  0.00000000  1.736111e-03 
  0.45833333  0.08333333  0.00000000  1.736111e-03 
  0.45833333  0.12500000  0.00000000  1.736111e-03 
  0.45833333  0.16666667  0.00000000  1.736111e-03 
  0.45833333  0.20833333  0.00000000  1.736111e-03 
  0.45833333  0.25000000  0.00000000  1.736111e-03 
  0.45833333  0.29166667  0.00000000  1.736111e-03 
  0.45833333  0.33333333  0.00000000  1.736111e-03 
  0.45833333  0.37500000  0.00000000  1.736111e-03 
  0.45833333  0.41666667  0.00000000  1.736111e-03 
  0.45833333  0.45833333  0.00000000  1.736111e-03 
  0.45833333  0.50000000  0.00000000  1.736111e-03 
  0.45833333  0.54166667  0.00000000  1.736111e-03 
  0.45833333  0.58333333  0.00000000  1.736111e-03 
  0.45833333  0.62500000  0.00000000  1.736111e-03 
  0.45833333  0.66666667  0.00000000  1.736111e-03 
  0.45833333  0.70833333  0.00000000  1.736111e-03 
  0.45833333  0.75000000  0.00000000  1.736111e-03 
  0.45833333  0.79166667  0.00000000  1.736111e-03 
  0.45833333  0.83333333  0.00000000  1.736111e-03 
  0.45833333  0.87500000  0.00000000  1.736111e-03 
  0.45833333  0.91666667  0.00000000  1.736111e-03 
  0.45833333  0.95833333  0.00000000  1.736111e-03 
  0.50000000  0.00000000  0.00000000  1.736111e-03 
  0.50000000  0.04166667  0.00000000  1.736111e-03 
  0.50000000  0.08333333  0.00000000  1.736111e-03 
  0.50000000  0.12500000  0.00000000  1.736111e-03 
  0.50000000  0.16666667  0.00000000  1.736111e-03 
  0.50000000  0.20833333  0.00000000  1.736111e-03 
  0.50000000  0.25000000  0.00000000  1.736111e-03 
  0.50000000  0.29166667  0.00000000  1.736111e-03 
  0.50000000  0.33333333  0.00000000  1.736111e-03 
  0.50000000  0.37500000  0.00000000  1.736111e-03 
  0.50000000  0.41666667  0.00000000  1.736111e-03 
  0.50000000  0.45833333  0.00000000  1.736111e-03 
  0.50000000  0.50000000  0.00000000  1.736111e-03 
  0.50000000  0.54166667  0.00000000  1.736111e-03 
  0.50000000  0.58333333  0.00000000  1.736111e-03 
  0.50000000  0.62500000  0.00000000  1.736111e-03 
  0.50000000  0.66666667  0.00000000  1.736111e-03 
  0.50000000  0.70833333  0.00000000  1.736111e-03 
  0.50000000  0.75000000  0.00000000  1.736111e-03 
  0.50000000  0.79166667  0.00000000  1.736111e-03 
  0.50000000  0.83333333  0.00000000  1.736111e-03 
  0.50000000  0.87500000  0.00000000  1.736111e-03 
  0.50000000  0.91666667  0.00000000  1.736111e-03 
  0.50000000  0.95833333  0.00000000  1.736111e-03 
  0.54166667  0.00000000  0.00000000  1.736111e-03 
  0.54166667  0.04166667  0.00000000  1.736111e-03 
  0.54166667  0.08333333  0.00000000  1.736111e-03 
  0.54166667  0.12500000  0.00000000  1.736111e-03 
  0.54166667  0.16666667  0.00000000  1.736111e-03 
  0.54166667  0.20833333  0.00000000  1.736111e-03 
  0.54166667  0.25000000  0.00000000  1.736111e-03 
  0.54166667  0.29166667  0.00000000  1.736111e-03 
  0.54166667  0.33333333  0.00000000  1.736111e-03 
  0.54166667  0.37500000  0.00000000  1.736111e-03 
  0.54166667  0.41666667  0.00000000  1.736111e-03 
  0.54166667  0.45833333  0.00000000  1.736111e-03 
  0.54166667  0.50000000  0.00000000  1.736111e-03 
  0.54166667  0.54166667  0.00000000  1.736111e-03 
  0.54166667  0.58333333  0.00000000  1.736111e-03 
  0.54166667  0.62500000  0.00000000  1.736111e-03 
  0.54166667  0.66666667  0.00000000  1.736111e-03 
  0.54166667  0.70833333  0.00000000  1.736111e-03 
  0.54166667  0.75000000  0.00000000  1.736111e-03 
  0.54166667  0.79166667  0.00000000  1.736111e-03 
  0.54166667  0.83333333  0.00000000  1.736111e-03 
  0.54166667  0.87500000  0.00000000  1.736111e-03 
  0.54166667  0.91666667  0.00000000  1.736111e-03 
  0.54166667  0.95833333  0.00000000  1.736111e-03 
  0.58333333  0.00000000  0.00000000  1.736111e-03 
  0.58333333  0.04166667  0.00000000  1.736111e-03 
  0.58333333  0.08333333  0.00000000  1.736111e-03 
  0.58333333  0.12500000  0.00000000  1.736111e-03 
  0.58333333  0.16666667  0.00000000  1.736111e-03 
  0.58333333  0.20833333  0.00000000  1.736111e-03 
  0.58333333  0.25000000  0.00000000  1.736111e-03 
  0.58333333  0.29166667  0.00000000  1.736111e-03 
  0.58333333  0.33333333  0.00000000  1.736111e-03 
  0.58333333  0.37500000  0.00000000  1.736111e-03 
  0.58333333  0.41666667  0.00000000  1.736111e-03 
  0.58333333  0.45833333  0.00000000  1.736111e-03 
  0.58333333  0.50000000  0.00000000  1.736111e-03 
  0.58333333  0.54166667  0.00000000  1.736111e-03 
  0.58333333  0.58333333  0.00000000  1.736111e-03 
  0.58333333  0.62500000  0.00000000  1.736111e-03 
  0.58333333  0.66666667  0.00000000  1.736111e-03 
  0.58333333  0.70833333  0.00000000  1.736111e-03 
  0.58333333  0.75000000  0.00000000  1.736111e-03 
  0.58333333  0.79166667  0.00000000  1.736111e-03 
  0.58333333  0.83333333  0.00000000  1.736111e-03 
  0.58333333  0.87500000  0.00000000  1.736111e-03 
  0.58333333  0.91666667  0.00000000  1.736111e-03 
  0.58333333  0.95833333  0.00000000  1.736111e-03 
  0.62500000  0.00000000  0.00000000  1.736111e-03 
  0.62500000  0.04166667  0.00000000  1.736111e-03 
  0.62500000  0.08333333  0.00000000  1.736111e-03 
  0.62500000  0.12500000  0.00000000  1.736111e-03 
  0.62500000  0.16666667  0.00000000  1.736111e-03 
  0.62500000  0.20833333  0.00000000  1.736111e-03 
  0.62500000  0.25000000  0.00000000  1.736111e-03 
  0.62500000  0.29166667  0.00000000  1.736111e-03 
  0.62500000  0.33333333  0.00000000  1.736111e-03 
  0.62500000  0.37500000  0.00000000  1.736111e-03 
  0.62500000  0.41666667  0.00000000  1.736111e-03 
  0.62500000  0.45833333  0.00000000  1.736111e-03 
  0.62500000  0.50000000  0.00000000  1.736111e-03 
  0.62500000  0.54166667  0.00000000  1.736111e-03 
  0.62500000  0.58333333  0.00000000  1.736111e-03 
  0.62500000  0.62500000  0.00000000  1.736111e-03 
  0.62500000  0.66666667  0.00000000  1.736111e-03 
  0.62500000  0.70833333  0.00000000  1.736111e-03 
  0.62500000  0.75000000  0.00000000  1.736111e-03 
  0.62500000  0.79166667  0.00000000  1.736111e-03 
  0.62500000  0.83333333  0.00000000  1.736111e-03 
  0.62500000  0.87500000  0.00000000  1.736111e-03 
  0.62500000  0.91666667  0.00000000  1.736111e-03 
  0.62500000  0.95833333  0.00000000  1.736111e-03 
  0.66666667  0.00000000  0.00000000  1.736111e-03 
  0.66666667  0.04166667  0.00000000  1.736111e-03 
  0.66666667  0.08333333  0.00000000  1.736111e-03 
  0.66666667  0.12500000  0.00000000  1.736111e-03 
  0.66666667  0.16666667  0.00000000  1.736111e-03 
  0.66666667  0.20833333  0.00000000  1.736111e-03 
  0.66666667  0.25000000  0.00000000  1.736111e-03 
  0.66666667  0.29166667  0.00000000  1.736111e-03 
  0.66666667  0.33333333  0.00000000  1.736111e-03 
  0.66666667  0.37500000  0.00000000  1.736111e-03 
  0.66666667  0.41666667  0.00000000  1.736111e-03 
  0.66666667  0.45833333  0.00000000  1.736111e-03 
  0.66666667  0.50000000  0.00000000  1.736111e-03 
  0.66666667  0.54166667  0.00000000  1.736111e-03 
  0.66666667  0.58333333  0.00000000  1.736111e-03 
  0.66666667  0.62500000  0.00000000  1.736111e-03 
  0.66666667  0.66666667  0.00000000  1.736111e-03 
  0.66666667  0.70833333  0.00000000  1.736111e-03 
  0.66666667  0.75000000  0.00000000  1.736111e-03 
  0.66666667  0.79166667  0.00000000  1.736111e-03 
  0.66666667  0.83333333  0.00000000  1.736111e-03 
  0.66666667  0.87500000  0.00000000  1.736111e-03 
  0.66666667  0.91666667  0.00000000  1.736111e-03 
  0.66666667  0.95833333  0.00000000  1.736111e-03 
  0.70833333  0.00000000  0.00000000  1.736111e-03 
  0.70833333  0.04166667  0.00000000  1.736111e-03 
  0.70833333  0.08333333  0.00000000  1.736111e-03 
  0.70833333  0.12500000  0.00000000  1.736111e-03 
  0.70833333  0.16666667  0.00000000  1.736111e-03 
  0.70833333  0.20833333  0.00000000  1.736111e-03 
  0.70833333  0.25000000  0.00000000  1.736111e-03 
  0.70833333  0.29166667  0.00000000  1.736111e-03 
  0.70833333  0.33333333  0.00000000  1.736111e-03 
  0.70833333  0.37500000  0.00000000  1.736111e-03 
  0.70833333  0.41666667  0.00000000  1.736111e-03 
  0.70833333  0.45833333  0.00000000  1.736111e-03 
  0.70833333  0.50000000  0.00000000  1.736111e-03 
  0.70833333  0.54166667  0.00000000  1.736111e-03 
  0.70833333  0.58333333  0.00000000  1.736111e-03 
  0.70833333  0.62500000  0.00000000  1.736111e-03 
  0.70833333  0.66666667  0.00000000  1.736111e-03 
  0.70833333  0.70833333  0.00000000  1.736111e-03 
  0.70833333  0.75000000  0.00000000  1.736111e-03 
  0.70833333  0.79166667  0.00000000  1.736111e-03 
  0.70833333  0.83333333  0.00000000  1.736111e-03 
  0.70833333  0.87500000  0.00000000  1.736111e-03 
  0.70833333  0.91666667  0.00000000  1.736111e-03 
  0.70833333  0.95833333  0.00000000  1.736111e-03 
  0.75000000  0.00000000  0.00000000  1.736111e-03 
  0.75000000  0.04166667  0.00000000  1.736111e-03 
  0.75000000  0.08333333  0.00000000  1.736111e-03 
  0.75000000  0.12500000  0.00000000  1.736111e-03 
  0.75000000  0.16666667  0.00000000  1.736111e-03 
  0.75000000  0.20833333  0.00000000  1.736111e-03 
  0.75000000  0.25000000  0.00000000  1.736111e-03 
  0.75000000  0.29166667  0.00000000  1.736111e-03 
  0.75000000  0.33333333  0.00000000  1.736111e-03 
  0.75000000  0.37500000  0.00000000  1.736111e-03 
  0.75000000  0.41666667  0.00000000  1.736111e-03 
  0.75000000  0.45833333  0.00000000  1.736111e-03 
  0.75000000  0.50000000  0.00000000  1.736111e-03 
  0.75000000  0.54166667  0.00000000  1.736111e-03 
  0.75000000  0.58333333  0.00000000  1.736111e-03 
  0.75000000  0.62500000  0.00000000  1.736111e-03 
  0.75000000  0.66666667  0.00000000  1.736111e-03 
  0.75000000  0.70833333  0.00000000  1.736111e-03 
  0.75000000  0.75000000  0.00000000  1.736111e-03 
  0.75000000  0.79166667  0.00000000  1.736111e-03 
  0.75000000  0.83333333  0.00000000  1.736111e-03 
  0.75000000  0.87500000  0.00000000  1.736111e-03 
  0.75000000  0.91666667  0.00000000  1.736111e-03 
  0.75000000  0.95833333  0.00000000  1.736111e-03 
  0.79166667  0.00000000  0.00000000  1.736111e-03 
  0.79166667  0.04166667  0.00000000  1.736111e-03 
  0.79166667  0.08333333  0.00000000  1.736111e-03 
  0.79166667  0.12500000  0.00000000  1.736111e-03 
  0.79166667  0.16666667  0.00000000  1.736111e-03 
  0.79166667  0.20833333  0.00000000  1.736111e-03 
  0.79166667  0.25000000  0.00000000  1.736111e-03 
  0.79166667  0.29166667  0.00000000  1.736111e-03 
  0.79166667  0.33333333  0.00000000  1.736111e-03 
  0.79166667  0.37500000  0.00000000  1.736111e-03 
  0.79166667  0.41666667  0.00000000  1.736111e-03 
  0.79166667  0.45833333  0.00000000  1.736111e-03 
  0.79166667  0.50000000  0.00000000  1.736111e-03 
  0.79166667  0.54166667  0.00000000  1.736111e-03 
  0.79166667  0.58333333  0.00000000  1.736111e-03 
  0.79166667  0.62500000  0.00000000  1.736111e-03 
  0.79166667  0.66666667  0.00000000  1.736111e-03 
  0.79166667  0.70833333  0.00000000  1.736111e-03 
  0.79166667  0.75000000  0.00000000  1.736111e-03 
  0.79166667  0.79166667  0.00000000  1.736111e-03 
  0.79166667  0.83333333  0.00000000  1.736111e-03 
  0.79166667  0.87500000  0.00000000  1.736111e-03 
  0.79166667  0.91666667  0.00000000  1.736111e-03 
  0.79166667  0.95833333  0.00000000  1.736111e-03 
  0.83333333  0.00000000  0.00000000  1.736111e-03 
  0.83333333  0.04166667  0.00000000  1.736111e-03 
  0.83333333  0.08333333  0.00000000  1.736111e-03 
  0.83333333  0.12500000  0.00000000  1.736111e-03 
  0.83333333  0.16666667  0.00000000  1.736111e-03 
  0.83333333  0.20833333  0.00000000  1.736111e-03 
  0.83333333  0.25000000  0.00000000  1.736111e-03 
  0.83333333  0.29166667  0.00000000  1.736111e-03 
  0.83333333  0.33333333  0.00000000  1.736111e-03 
  0.83333333  0.37500000  0.00000000  1.736111e-03 
  0.83333333  0.41666667  0.00000000  1.736111e-03 
  0.83333333  0.45833333  0.00000000  1.736111e-03 
  0.83333333  0.50000000  0.00000000  1.736111e-03 
  0.83333333  0.54166667  0.00000000  1.736111e-03 
  0.83333333  0.58333333  0.00000000  1.736111e-03 
  0.83333333  0.62500000  0.00000000  1.736111e-03 
  0.83333333  0.66666667  0.00000000  1.736111e-03 
  0.83333333  0.70833333  0.00000000  1.736111e-03 
  0.83333333  0.75000000  0.00000000  1.736111e-03 
  0.83333333  0.79166667  0.00000000  1.736111e-03 
  0.83333333  0.83333333  0.00000000  1.736111e-03 
  0.83333333  0.87500000  0.00000000  1.736111e-03 
  0.83333333  0.91666667  0.00000000  1.736111e-03 
  0.83333333  0.95833333  0.00000000  1.736111e-03 
  0.87500000  0.00000000  0.00000000  1.736111e-03 
  0.87500000  0.04166667  0.00000000  1.736111e-03 
  0.87500000  0.08333333  0.00000000  1.736111e-03 
  0.87500000  0.12500000  0.00000000  1.736111e-03 
  0.87500000  0.16666667  0.00000000  1.736111e-03 
  0.87500000  0.20833333  0.00000000  1.736111e-03 
  0.87500000  0.25000000  0.00000000  1.736111e-03 
  0.87500000  0.29166667  0.00000000  1.736111e-03 
  0.87500000  0.33333333  0.00000000  1.736111e-03 
  0.87500000  0.37500000  0.00000000  1.736111e-03 
  0.87500000  0.41666667  0.00000000  1.736111e-03 
  0.87500000  0.45833333  0.00000000  1.736111e-03 
  0.87500000  0.50000000  0.00000000  1.736111e-03 
  0.87500000  0.54166667  0.00000000  1.736111e-03 
  0.87500000  0.58333333  0.00000000  1.736111e-03 
  0.87500000  0.62500000  0.00000000  1.736111e-03 
  0.87500000  0.66666667  0.00000000  1.736111e-03 
  0.87500000  0.70833333  0.00000000  1.736111e-03 
  0.87500000  0.75000000  0.00000000  1.736111e-03 
  0.87500000  0.79166667  0.00000000  1.736111e-03 
  0.87500000  0.83333333  0.00000000  1.736111e-03 
  0.87500000  0.87500000  0.00000000  1.736111e-03 
  0.87500000  0.91666667  0.00000000  1.736111e-03 
  0.87500000  0.95833333  0.00000000  1.736111e-03 
  0.91666667  0.00000000  0.00000000  1.736111e-03 
  0.91666667  0.04166667  0.00000000  1.736111e-03 
  0.91666667  0.08333333  0.00000000  1.736111e-03 
  0.91666667  0.12500000  0.00000000  1.736111e-03 
  0.91666667  0.16666667  0.00000000  1.736111e-03 
  0.91666667  0.20833333  0.00000000  1.736111e-03 
  0.91666667  0.25000000  0.00000000  1.736111e-03 
  0.91666667  0.29166667  0.00000000  1.736111e-03 
  0.91666667  0.33333333  0.00000000  1.736111e-03 
  0.91666667  0.37500000  0.00000000  1.736111e-03 
  0.91666667  0.41666667  0.00000000  1.736111e-03 
  0.91666667  0.45833333  0.00000000  1.736111e-03 
  0.91666667  0.50000000  0.00000000  1.736111e-03 
  0.91666667  0.54166667  0.00000000  1.736111e-03 
  0.91666667  0.58333333  0.00000000  1.736111e-03 
  0.91666667  0.62500000  0.00000000  1.736111e-03 
  0.91666667  0.66666667  0.00000000  1.736111e-03 
  0.91666667  0.70833333  0.00000000  1.736111e-03 
  0.91666667  0.75000000  0.00000000  1.736111e-03 
  0.91666667  0.79166667  0.00000000  1.736111e-03 
  0.91666667  0.83333333  0.00000000  1.736111e-03 
  0.91666667  0.87500000  0.00000000  1.736111e-03 
  0.91666667  0.91666667  0.00000000  1.736111e-03 
  0.91666667  0.95833333  0.00000000  1.736111e-03 
  0.95833333  0.00000000  0.00000000  1.736111e-03 
  0.95833333  0.04166667  0.00000000  1.736111e-03 
  0.95833333  0.08333333  0.00000000  1.736111e-03 
  0.95833333  0.12500000  0.00000000  1.736111e-03 
  0.95833333  0.16666667  0.00000000  1.736111e-03 
  0.95833333  0.20833333  0.00000000  1.736111e-03 
  0.95833333  0.25000000  0.00000000  1.736111e-03 
  0.95833333  0.29166667  0.00000000  1.736111e-03 
  0.95833333  0.33333333  0.00000000  1.736111e-03 
  0.95833333  0.37500000  0.00000000  1.736111e-03 
  0.95833333  0.41666667  0.00000000  1.736111e-03 
  0.95833333  0.45833333  0.00000000  1.736111e-03 