 &control
    calculation='bands'
    pseudo_dir = './',
    outdir='./',
    prefix='FeCl2'
 /
&system
    ibrav = 4, nat= 3, ntyp= 2,
	 A=3.47, C=20
    ecutwfc =80.0, nspin = 1, nbnd= 32, ecutrho=800.0
    occupations='smearing', smearing='cold', degauss=0.01
 /
 &electrons
    conv_thr = 1.0e-8
 /
ATOMIC_SPECIES
 Fe 55.847 Fe.pbe-spn-kjpaw_psl.1.0.0.UPF
 Cl 35.4527 Cl.pbe-n-kjpaw_psl.1.0.0.UPF
ATOMIC_POSITIONS crystal
 Fe   0.0000000     0.0000000     0.5000000
 Cl   0.3333333     0.6666666     0.4290000
 Cl   0.6666667     0.3333333     0.5710000
K_POINTS crystal_b
  4
  0.0 0.0 0.0                                 50 ! G
  0.0000000000    0.5000000000   0.0000000000 50 ! M
  -0.3333333333   0.6666666667   0.0000000000 50 ! K
  0.0 0.0 0.0                                 50 ! G
