 &bands
    prefix  = 'FeCl2'
    outdir = './'
    filband = 'bands.dat'
    lsym=.true.,
 /
